
     Program PWSCF v.7.4.1 starts on  8Apr2026 at 23:24:25 

     This program is part of the open-source Quantum ESPRESSO suite
     for quantum simulation of materials; please cite
         "P. Giannozzi et al., J. Phys.:Condens. Matter 21 395502 (2009);
         "P. Giannozzi et al., J. Phys.:Condens. Matter 29 465901 (2017);
         "P. Giannozzi et al., J. Chem. Phys. 152 154105 (2020);
          URL http://www.quantum-espresso.org", 
     in publications or presentations arising from this work. More details at
     http://www.quantum-espresso.org/quote

     Parallel version (MPI), running on     1 processors

     MPI processes distributed on     1 nodes
     4679 MiB available memory on the printing compute node when the environment starts

     Waiting for input...
     Reading input from standard input
Warning: card &IONS ignored
Warning: card / ignored
Warning: card &CELL ignored
Warning: card / ignored

     Current dimensions of program PWSCF are:
     Max number of different atomic species (ntypx) = 10
     Max number of k-points (npk) =  40000
     Max angular momentum in pseudopotentials (lmaxx) =  4
     file Cl.pbesol-n-kjpaw_psl.1.0.0.UPF: wavefunction(s)  3S 3P renormalized
     file Na.pbesol-spn-kjpaw_psl.1.0.0.UPF: wavefunction(s)  2P renormalized

     Atomic positions and unit cell read from directory:
     ./out/aiida.save/

     Message from routine setup:
     using ibrav=0 with symmetry is DISCOURAGED, use correct ibrav instead

     Subspace diagonalization in iterative solution of the eigenvalue problem:
     a serial algorithm will be used


     G-vector sticks info
     --------------------
     sticks:   dense  smooth     PW     G-vecs:    dense   smooth      PW
     Sum        2791    2563    703                97349    85083   12339

     Using Slab Decomposition



     bravais-lattice index     =            0
     lattice parameter (alat)  =       7.6055  a.u.
     unit-cell volume          =     311.0722 (a.u.)^3
     number of atoms/cell      =            2
     number of atomic types    =            2
     number of electrons       =        16.00
     number of Kohn-Sham states=           20
     kinetic-energy cutoff     =     160.0000  Ry
     charge density cutoff     =     700.0000  Ry
     Exchange-correlation= SLA  PW   PSX  PSC
                           (   1   4  10   8   0   0   0)

     celldm(1)=   7.605459  celldm(2)=   0.000000  celldm(3)=   0.000000
     celldm(4)=   0.000000  celldm(5)=   0.000000  celldm(6)=   0.000000

     crystal axes: (cart. coord. in units of alat)
               a(1) = (   0.000000   0.707107   0.707107 )  
               a(2) = (   0.707107   0.000000   0.707107 )  
               a(3) = (   0.707107   0.707107   0.000000 )  

     reciprocal axes: (cart. coord. in units 2 pi/alat)
               b(1) = ( -0.707107  0.707107  0.707107 )  
               b(2) = (  0.707107 -0.707107  0.707107 )  
               b(3) = (  0.707107  0.707107 -0.707107 )  


     PseudoPot. # 1 for Cl read from file:
     ../pseudo/Cl.pbesol-n-kjpaw_psl.1.0.0.UPF
     MD5 check sum: 939a64fc035742408689cdf8470f8314
     Pseudo is Projector augmented-wave + core cor, Zval =  7.0
     Generated using &quot;atomic&quot; code by A. Dal Corso  v.6.3
     Shape of augmentation charge: PSQ
     Using radial grid of 1157 points,  6 beta functions with: 
                l(1) =   0
                l(2) =   0
                l(3) =   1
                l(4) =   1
                l(5) =   2
                l(6) =   2
     Q(r) pseudized with 0 coefficients 


     PseudoPot. # 2 for Na read from file:
     ../pseudo/Na.pbesol-spn-kjpaw_psl.1.0.0.UPF
     MD5 check sum: 82d3b5954328407f51b25170da654a8a
     Pseudo is Projector augmented-wave + core cor, Zval =  9.0
     Generated using &quot;atomic&quot; code by A. Dal Corso  v.6.3
     Shape of augmentation charge: PSQ
     Using radial grid of 1121 points,  4 beta functions with: 
                l(1) =   0
                l(2) =   0
                l(3) =   1
                l(4) =   1
     Q(r) pseudized with 0 coefficients 


     atomic species   valence    mass     pseudopotential
     Cl                7.00    35.45300     Cl( 1.00)
     Na                9.00    22.98977     Na( 1.00)

     48 Sym. Ops., with inversion, found


                                    s                        frac. trans.

      isym =  1     identity                                     

 cryst.   s( 1) = (     1          0          0      )
                  (     0          1          0      )
                  (     0          0          1      )

 cart.    s( 1) = (  1.0000000  0.0000000  0.0000000 )
                  (  0.0000000  1.0000000  0.0000000 )
                  (  0.0000000  0.0000000  1.0000000 )


      isym =  2     180 deg rotation - cart. axis [0,0,1]        

 cryst.   s( 2) = (     0          1         -1      )
                  (     1          0         -1      )
                  (     0          0         -1      )

 cart.    s( 2) = ( -1.0000000  0.0000000  0.0000000 )
                  (  0.0000000 -1.0000000  0.0000000 )
                  (  0.0000000  0.0000000  1.0000000 )


      isym =  3     180 deg rotation - cart. axis [0,1,0]        

 cryst.   s( 3) = (     0         -1          1      )
                  (     0         -1          0      )
                  (     1         -1          0      )

 cart.    s( 3) = ( -1.0000000  0.0000000  0.0000000 )
                  (  0.0000000  1.0000000  0.0000000 )
                  (  0.0000000  0.0000000 -1.0000000 )


      isym =  4     180 deg rotation - cart. axis [1,0,0]        

 cryst.   s( 4) = (    -1          0          0      )
                  (    -1          0          1      )
                  (    -1          1          0      )

 cart.    s( 4) = (  1.0000000  0.0000000  0.0000000 )
                  (  0.0000000 -1.0000000  0.0000000 )
                  (  0.0000000  0.0000000 -1.0000000 )


      isym =  5     180 deg rotation - cart. axis [1,1,0]        

 cryst.   s( 5) = (    -1          0          1      )
                  (     0         -1          1      )
                  (     0          0          1      )

 cart.    s( 5) = (  0.0000000  1.0000000  0.0000000 )
                  (  1.0000000  0.0000000  0.0000000 )
                  (  0.0000000  0.0000000 -1.0000000 )


      isym =  6     180 deg rotation - cart. axis [1,-1,0]       

 cryst.   s( 6) = (     0         -1          0      )
                  (    -1          0          0      )
                  (     0          0         -1      )

 cart.    s( 6) = (  0.0000000 -1.0000000  0.0000000 )
                  ( -1.0000000  0.0000000  0.0000000 )
                  (  0.0000000  0.0000000 -1.0000000 )


      isym =  7      90 deg rotation - cart. axis [0,0,-1]       

 cryst.   s( 7) = (     0          1          0      )
                  (     0          1         -1      )
                  (    -1          1          0      )

 cart.    s( 7) = (  0.0000000  1.0000000  0.0000000 )
                  ( -1.0000000  0.0000000  0.0000000 )
                  (  0.0000000  0.0000000  1.0000000 )


      isym =  8      90 deg rotation - cart. axis [0,0,1]        

 cryst.   s( 8) = (     1          0         -1      )
                  (     1          0          0      )
                  (     1         -1          0      )

 cart.    s( 8) = (  0.0000000 -1.0000000  0.0000000 )
                  (  1.0000000  0.0000000  0.0000000 )
                  (  0.0000000  0.0000000  1.0000000 )


      isym =  9     180 deg rotation - cart. axis [1,0,1]        

 cryst.   s( 9) = (    -1          1          0      )
                  (     0          1          0      )
                  (     0          1         -1      )

 cart.    s( 9) = (  0.0000000  0.0000000  1.0000000 )
                  (  0.0000000 -1.0000000  0.0000000 )
                  (  1.0000000  0.0000000  0.0000000 )


      isym = 10     180 deg rotation - cart. axis [-1,0,1]       

 cryst.   s(10) = (     0          0         -1      )
                  (     0         -1          0      )
                  (    -1          0          0      )

 cart.    s(10) = (  0.0000000  0.0000000 -1.0000000 )
                  (  0.0000000 -1.0000000  0.0000000 )
                  ( -1.0000000  0.0000000  0.0000000 )


      isym = 11      90 deg rotation - cart. axis [0,1,0]        

 cryst.   s(11) = (     0          0          1      )
                  (    -1          0          1      )
                  (     0         -1          1      )

 cart.    s(11) = (  0.0000000  0.0000000  1.0000000 )
                  (  0.0000000  1.0000000  0.0000000 )
                  ( -1.0000000  0.0000000  0.0000000 )


      isym = 12      90 deg rotation - cart. axis [0,-1,0]       

 cryst.   s(12) = (     1         -1          0      )
                  (     1          0         -1      )
                  (     1          0          0      )

 cart.    s(12) = (  0.0000000  0.0000000 -1.0000000 )
                  (  0.0000000  1.0000000  0.0000000 )
                  (  1.0000000  0.0000000  0.0000000 )


      isym = 13     180 deg rotation - cart. axis [0,1,1]        

 cryst.   s(13) = (     1          0          0      )
                  (     1         -1          0      )
                  (     1          0         -1      )

 cart.    s(13) = ( -1.0000000  0.0000000  0.0000000 )
                  (  0.0000000  0.0000000  1.0000000 )
                  (  0.0000000  1.0000000  0.0000000 )


      isym = 14     180 deg rotation - cart. axis [0,1,-1]       

 cryst.   s(14) = (    -1          0          0      )
                  (     0          0         -1      )
                  (     0         -1          0      )

 cart.    s(14) = ( -1.0000000  0.0000000  0.0000000 )
                  (  0.0000000  0.0000000 -1.0000000 )
                  (  0.0000000 -1.0000000  0.0000000 )


      isym = 15      90 deg rotation - cart. axis [-1,0,0]       

 cryst.   s(15) = (     0         -1          1      )
                  (     0          0          1      )
                  (    -1          0          1      )

 cart.    s(15) = (  1.0000000  0.0000000  0.0000000 )
                  (  0.0000000  0.0000000  1.0000000 )
                  (  0.0000000 -1.0000000  0.0000000 )


      isym = 16      90 deg rotation - cart. axis [1,0,0]        

 cryst.   s(16) = (     0          1         -1      )
                  (    -1          1          0      )
                  (     0          1          0      )

 cart.    s(16) = (  1.0000000  0.0000000  0.0000000 )
                  (  0.0000000  0.0000000 -1.0000000 )
                  (  0.0000000  1.0000000  0.0000000 )


      isym = 17     120 deg rotation - cart. axis [-1,-1,-1]     

 cryst.   s(17) = (     0          0          1      )
                  (     1          0          0      )
                  (     0          1          0      )

 cart.    s(17) = (  0.0000000  1.0000000  0.0000000 )
                  (  0.0000000  0.0000000  1.0000000 )
                  (  1.0000000  0.0000000  0.0000000 )


      isym = 18     120 deg rotation - cart. axis [-1,1,1]       

 cryst.   s(18) = (     1         -1          0      )
                  (     0         -1          1      )
                  (     0         -1          0      )

 cart.    s(18) = (  0.0000000 -1.0000000  0.0000000 )
                  (  0.0000000  0.0000000  1.0000000 )
                  ( -1.0000000  0.0000000  0.0000000 )


      isym = 19     120 deg rotation - cart. axis [1,1,-1]       

 cryst.   s(19) = (    -1          1          0      )
                  (    -1          0          0      )
                  (    -1          0          1      )

 cart.    s(19) = (  0.0000000  1.0000000  0.0000000 )
                  (  0.0000000  0.0000000 -1.0000000 )
                  ( -1.0000000  0.0000000  0.0000000 )


      isym = 20     120 deg rotation - cart. axis [1,-1,1]       

 cryst.   s(20) = (     0          0         -1      )
                  (     0          1         -1      )
                  (     1          0         -1      )

 cart.    s(20) = (  0.0000000 -1.0000000  0.0000000 )
                  (  0.0000000  0.0000000 -1.0000000 )
                  (  1.0000000  0.0000000  0.0000000 )


      isym = 21     120 deg rotation - cart. axis [1,1,1]        

 cryst.   s(21) = (     0          1          0      )
                  (     0          0          1      )
                  (     1          0          0      )

 cart.    s(21) = (  0.0000000  0.0000000  1.0000000 )
                  (  1.0000000  0.0000000  0.0000000 )
                  (  0.0000000  1.0000000  0.0000000 )


      isym = 22     120 deg rotation - cart. axis [-1,1,-1]      

 cryst.   s(22) = (    -1          0          1      )
                  (    -1          1          0      )
                  (    -1          0          0      )

 cart.    s(22) = (  0.0000000  0.0000000  1.0000000 )
                  ( -1.0000000  0.0000000  0.0000000 )
                  (  0.0000000 -1.0000000  0.0000000 )


      isym = 23     120 deg rotation - cart. axis [1,-1,-1]      

 cryst.   s(23) = (     1          0         -1      )
                  (     0          0         -1      )
                  (     0          1         -1      )

 cart.    s(23) = (  0.0000000  0.0000000 -1.0000000 )
                  ( -1.0000000  0.0000000  0.0000000 )
                  (  0.0000000  1.0000000  0.0000000 )


      isym = 24     120 deg rotation - cart. axis [-1,-1,1]      

 cryst.   s(24) = (     0         -1          0      )
                  (     1         -1          0      )
                  (     0         -1          1      )

 cart.    s(24) = (  0.0000000  0.0000000 -1.0000000 )
                  (  1.0000000  0.0000000  0.0000000 )
                  (  0.0000000 -1.0000000  0.0000000 )


      isym = 25     inversion                                    

 cryst.   s(25) = (    -1          0          0      )
                  (     0         -1          0      )
                  (     0          0         -1      )

 cart.    s(25) = ( -1.0000000  0.0000000  0.0000000 )
                  (  0.0000000 -1.0000000  0.0000000 )
                  (  0.0000000  0.0000000 -1.0000000 )


      isym = 26     inv. 180 deg rotation - cart. axis [0,0,1]   

 cryst.   s(26) = (     0         -1          1      )
                  (    -1          0          1      )
                  (     0          0          1      )

 cart.    s(26) = (  1.0000000  0.0000000  0.0000000 )
                  (  0.0000000  1.0000000  0.0000000 )
                  (  0.0000000  0.0000000 -1.0000000 )


      isym = 27     inv. 180 deg rotation - cart. axis [0,1,0]   

 cryst.   s(27) = (     0          1         -1      )
                  (     0          1          0      )
                  (    -1          1          0      )

 cart.    s(27) = (  1.0000000  0.0000000  0.0000000 )
                  (  0.0000000 -1.0000000  0.0000000 )
                  (  0.0000000  0.0000000  1.0000000 )


      isym = 28     inv. 180 deg rotation - cart. axis [1,0,0]   

 cryst.   s(28) = (     1          0          0      )
                  (     1          0         -1      )
                  (     1         -1          0      )

 cart.    s(28) = ( -1.0000000  0.0000000  0.0000000 )
                  (  0.0000000  1.0000000  0.0000000 )
                  (  0.0000000  0.0000000  1.0000000 )


      isym = 29     inv. 180 deg rotation - cart. axis [1,1,0]   

 cryst.   s(29) = (     1          0         -1      )
                  (     0          1         -1      )
                  (     0          0         -1      )

 cart.    s(29) = (  0.0000000 -1.0000000  0.0000000 )
                  ( -1.0000000  0.0000000  0.0000000 )
                  (  0.0000000  0.0000000  1.0000000 )


      isym = 30     inv. 180 deg rotation - cart. axis [1,-1,0]  

 cryst.   s(30) = (     0          1          0      )
                  (     1          0          0      )
                  (     0          0          1      )

 cart.    s(30) = (  0.0000000  1.0000000  0.0000000 )
                  (  1.0000000  0.0000000  0.0000000 )
                  (  0.0000000  0.0000000  1.0000000 )


      isym = 31     inv.  90 deg rotation - cart. axis [0,0,-1]  

 cryst.   s(31) = (     0         -1          0      )
                  (     0         -1          1      )
                  (     1         -1          0      )

 cart.    s(31) = (  0.0000000 -1.0000000  0.0000000 )
                  (  1.0000000  0.0000000  0.0000000 )
                  (  0.0000000  0.0000000 -1.0000000 )


      isym = 32     inv.  90 deg rotation - cart. axis [0,0,1]   

 cryst.   s(32) = (    -1          0          1      )
                  (    -1          0          0      )
                  (    -1          1          0      )

 cart.    s(32) = (  0.0000000  1.0000000  0.0000000 )
                  ( -1.0000000  0.0000000  0.0000000 )
                  (  0.0000000  0.0000000 -1.0000000 )


      isym = 33     inv. 180 deg rotation - cart. axis [1,0,1]   

 cryst.   s(33) = (     1         -1          0      )
                  (     0         -1          0      )
                  (     0         -1          1      )

 cart.    s(33) = (  0.0000000  0.0000000 -1.0000000 )
                  (  0.0000000  1.0000000  0.0000000 )
                  ( -1.0000000  0.0000000  0.0000000 )


      isym = 34     inv. 180 deg rotation - cart. axis [-1,0,1]  

 cryst.   s(34) = (     0          0          1      )
                  (     0          1          0      )
                  (     1          0          0      )

 cart.    s(34) = (  0.0000000  0.0000000  1.0000000 )
                  (  0.0000000  1.0000000  0.0000000 )
                  (  1.0000000  0.0000000  0.0000000 )


      isym = 35     inv.  90 deg rotation - cart. axis [0,1,0]   

 cryst.   s(35) = (     0          0         -1      )
                  (     1          0         -1      )
                  (     0          1         -1      )

 cart.    s(35) = (  0.0000000  0.0000000 -1.0000000 )
                  (  0.0000000 -1.0000000  0.0000000 )
                  (  1.0000000  0.0000000  0.0000000 )


      isym = 36     inv.  90 deg rotation - cart. axis [0,-1,0]  

 cryst.   s(36) = (    -1          1          0      )
                  (    -1          0          1      )
                  (    -1          0          0      )

 cart.    s(36) = (  0.0000000  0.0000000  1.0000000 )
                  (  0.0000000 -1.0000000  0.0000000 )
                  ( -1.0000000  0.0000000  0.0000000 )


      isym = 37     inv. 180 deg rotation - cart. axis [0,1,1]   

 cryst.   s(37) = (    -1          0          0      )
                  (    -1          1          0      )
                  (    -1          0          1      )

 cart.    s(37) = (  1.0000000  0.0000000  0.0000000 )
                  (  0.0000000  0.0000000 -1.0000000 )
                  (  0.0000000 -1.0000000  0.0000000 )


      isym = 38     inv. 180 deg rotation - cart. axis [0,1,-1]  

 cryst.   s(38) = (     1          0          0      )
                  (     0          0          1      )
                  (     0          1          0      )

 cart.    s(38) = (  1.0000000  0.0000000  0.0000000 )
                  (  0.0000000  0.0000000  1.0000000 )
                  (  0.0000000  1.0000000  0.0000000 )


      isym = 39     inv.  90 deg rotation - cart. axis [-1,0,0]  

 cryst.   s(39) = (     0          1         -1      )
                  (     0          0         -1      )
                  (     1          0         -1      )

 cart.    s(39) = ( -1.0000000  0.0000000  0.0000000 )
                  (  0.0000000  0.0000000 -1.0000000 )
                  (  0.0000000  1.0000000  0.0000000 )


      isym = 40     inv.  90 deg rotation - cart. axis [1,0,0]   

 cryst.   s(40) = (     0         -1          1      )
                  (     1         -1          0      )
                  (     0         -1          0      )

 cart.    s(40) = ( -1.0000000  0.0000000  0.0000000 )
                  (  0.0000000  0.0000000  1.0000000 )
                  (  0.0000000 -1.0000000  0.0000000 )


      isym = 41     inv. 120 deg rotation - cart. axis [-1,-1,-1]

 cryst.   s(41) = (     0          0         -1      )
                  (    -1          0          0      )
                  (     0         -1          0      )

 cart.    s(41) = (  0.0000000 -1.0000000  0.0000000 )
                  (  0.0000000  0.0000000 -1.0000000 )
                  ( -1.0000000  0.0000000  0.0000000 )


      isym = 42     inv. 120 deg rotation - cart. axis [-1,1,1]  

 cryst.   s(42) = (    -1          1          0      )
                  (     0          1         -1      )
                  (     0          1          0      )

 cart.    s(42) = (  0.0000000  1.0000000  0.0000000 )
                  (  0.0000000  0.0000000 -1.0000000 )
                  (  1.0000000  0.0000000  0.0000000 )


      isym = 43     inv. 120 deg rotation - cart. axis [1,1,-1]  

 cryst.   s(43) = (     1         -1          0      )
                  (     1          0          0      )
                  (     1          0         -1      )

 cart.    s(43) = (  0.0000000 -1.0000000  0.0000000 )
                  (  0.0000000  0.0000000  1.0000000 )
                  (  1.0000000  0.0000000  0.0000000 )


      isym = 44     inv. 120 deg rotation - cart. axis [1,-1,1]  

 cryst.   s(44) = (     0          0          1      )
                  (     0         -1          1      )
                  (    -1          0          1      )

 cart.    s(44) = (  0.0000000  1.0000000  0.0000000 )
                  (  0.0000000  0.0000000  1.0000000 )
                  ( -1.0000000  0.0000000  0.0000000 )


      isym = 45     inv. 120 deg rotation - cart. axis [1,1,1]   

 cryst.   s(45) = (     0         -1          0      )
                  (     0          0         -1      )
                  (    -1          0          0      )

 cart.    s(45) = (  0.0000000  0.0000000 -1.0000000 )
                  ( -1.0000000  0.0000000  0.0000000 )
                  (  0.0000000 -1.0000000  0.0000000 )


      isym = 46     inv. 120 deg rotation - cart. axis [-1,1,-1] 

 cryst.   s(46) = (     1          0         -1      )
                  (     1         -1          0      )
                  (     1          0          0      )

 cart.    s(46) = (  0.0000000  0.0000000 -1.0000000 )
                  (  1.0000000  0.0000000  0.0000000 )
                  (  0.0000000  1.0000000  0.0000000 )


      isym = 47     inv. 120 deg rotation - cart. axis [1,-1,-1] 

 cryst.   s(47) = (    -1          0          1      )
                  (     0          0          1      )
                  (     0         -1          1      )

 cart.    s(47) = (  0.0000000  0.0000000  1.0000000 )
                  (  1.0000000  0.0000000  0.0000000 )
                  (  0.0000000 -1.0000000  0.0000000 )


      isym = 48     inv. 120 deg rotation - cart. axis [-1,-1,1] 

 cryst.   s(48) = (     0          1          0      )
                  (    -1          1          0      )
                  (     0          1         -1      )

 cart.    s(48) = (  0.0000000  0.0000000  1.0000000 )
                  ( -1.0000000  0.0000000  0.0000000 )
                  (  0.0000000  1.0000000  0.0000000 )


   Cartesian axes

     site n.     atom                  positions (alat units)
         1        Na     tau(   1) = (   0.0000000   0.0000000   0.0000000  )
         2        Cl     tau(   2) = (   0.7071068   0.7071068   0.7071068  )

   Crystallographic axes

     site n.     atom                  positions (cryst. coord.)
         1        Na     tau(   1) = (  0.0000000  0.0000000  0.0000000  )
         2        Cl     tau(   2) = (  0.5000000  0.5000000  0.5000000  )

     number of k points=   301
                       cart. coord. in units 2pi/alat
        k(    1) = (  -0.3535534  -0.7071068   0.0000000), wk =   0.0066445
        k(    2) = (  -0.3535534  -0.7000357   0.0070711), wk =   0.0066445
        k(    3) = (  -0.3535534  -0.6929646   0.0141421), wk =   0.0066445
        k(    4) = (  -0.3535534  -0.6858936   0.0212132), wk =   0.0066445
        k(    5) = (  -0.3535534  -0.6788225   0.0282843), wk =   0.0066445
        k(    6) = (  -0.3535534  -0.6717514   0.0353553), wk =   0.0066445
        k(    7) = (  -0.3535534  -0.6646804   0.0424264), wk =   0.0066445
        k(    8) = (  -0.3535534  -0.6576093   0.0494975), wk =   0.0066445
        k(    9) = (  -0.3535534  -0.6505382   0.0565685), wk =   0.0066445
        k(   10) = (  -0.3535534  -0.6434672   0.0636396), wk =   0.0066445
        k(   11) = (  -0.3535534  -0.6363961   0.0707107), wk =   0.0066445
        k(   12) = (  -0.3535534  -0.6293250   0.0777817), wk =   0.0066445
        k(   13) = (  -0.3535534  -0.6222540   0.0848528), wk =   0.0066445
        k(   14) = (  -0.3535534  -0.6151829   0.0919239), wk =   0.0066445
        k(   15) = (  -0.3535534  -0.6081118   0.0989949), wk =   0.0066445
        k(   16) = (  -0.3535534  -0.6010408   0.1060660), wk =   0.0066445
        k(   17) = (  -0.3535534  -0.5939697   0.1131371), wk =   0.0066445
        k(   18) = (  -0.3535534  -0.5868986   0.1202082), wk =   0.0066445
        k(   19) = (  -0.3535534  -0.5798276   0.1272792), wk =   0.0066445
        k(   20) = (  -0.3535534  -0.5727565   0.1343503), wk =   0.0066445
        k(   21) = (  -0.3535534  -0.5656854   0.1414214), wk =   0.0066445
        k(   22) = (  -0.3535534  -0.5586144   0.1484924), wk =   0.0066445
        k(   23) = (  -0.3535534  -0.5515433   0.1555635), wk =   0.0066445
        k(   24) = (  -0.3535534  -0.5444722   0.1626346), wk =   0.0066445
        k(   25) = (  -0.3535534  -0.5374012   0.1697056), wk =   0.0066445
        k(   26) = (  -0.3535534  -0.5303301   0.1767767), wk =   0.0066445
        k(   27) = (  -0.3535534  -0.5232590   0.1838478), wk =   0.0066445
        k(   28) = (  -0.3535534  -0.5161880   0.1909188), wk =   0.0066445
        k(   29) = (  -0.3535534  -0.5091169   0.1979899), wk =   0.0066445
        k(   30) = (  -0.3535534  -0.5020458   0.2050610), wk =   0.0066445
        k(   31) = (  -0.3535534  -0.4949747   0.2121320), wk =   0.0066445
        k(   32) = (  -0.3535534  -0.4879037   0.2192031), wk =   0.0066445
        k(   33) = (  -0.3535534  -0.4808326   0.2262742), wk =   0.0066445
        k(   34) = (  -0.3535534  -0.4737615   0.2333452), wk =   0.0066445
        k(   35) = (  -0.3535534  -0.4666905   0.2404163), wk =   0.0066445
        k(   36) = (  -0.3535534  -0.4596194   0.2474874), wk =   0.0066445
        k(   37) = (  -0.3535534  -0.4525483   0.2545584), wk =   0.0066445
        k(   38) = (  -0.3535534  -0.4454773   0.2616295), wk =   0.0066445
        k(   39) = (  -0.3535534  -0.4384062   0.2687006), wk =   0.0066445
        k(   40) = (  -0.3535534  -0.4313351   0.2757716), wk =   0.0066445
        k(   41) = (  -0.3535534  -0.4242641   0.2828427), wk =   0.0066445
        k(   42) = (  -0.3535534  -0.4171930   0.2899138), wk =   0.0066445
        k(   43) = (  -0.3535534  -0.4101219   0.2969848), wk =   0.0066445
        k(   44) = (  -0.3535534  -0.4030509   0.3040559), wk =   0.0066445
        k(   45) = (  -0.3535534  -0.3959798   0.3111270), wk =   0.0066445
        k(   46) = (  -0.3535534  -0.3889087   0.3181981), wk =   0.0066445
        k(   47) = (  -0.3535534  -0.3818377   0.3252691), wk =   0.0066445
        k(   48) = (  -0.3535534  -0.3747666   0.3323402), wk =   0.0066445
        k(   49) = (  -0.3535534  -0.3676955   0.3394113), wk =   0.0066445
        k(   50) = (  -0.3535534  -0.3606245   0.3464823), wk =   0.0066445
        k(   51) = (  -0.3535534  -0.3535534   0.3535534), wk =   0.0066445
        k(   52) = (  -0.3464823  -0.3464823   0.3464823), wk =   0.0066445
        k(   53) = (  -0.3394113  -0.3394113   0.3394113), wk =   0.0066445
        k(   54) = (  -0.3323402  -0.3323402   0.3323402), wk =   0.0066445
        k(   55) = (  -0.3252691  -0.3252691   0.3252691), wk =   0.0066445
        k(   56) = (  -0.3181981  -0.3181981   0.3181981), wk =   0.0066445
        k(   57) = (  -0.3111270  -0.3111270   0.3111270), wk =   0.0066445
        k(   58) = (  -0.3040559  -0.3040559   0.3040559), wk =   0.0066445
        k(   59) = (  -0.2969848  -0.2969848   0.2969848), wk =   0.0066445
        k(   60) = (  -0.2899138  -0.2899138   0.2899138), wk =   0.0066445
        k(   61) = (  -0.2828427  -0.2828427   0.2828427), wk =   0.0066445
        k(   62) = (  -0.2757716  -0.2757716   0.2757716), wk =   0.0066445
        k(   63) = (  -0.2687006  -0.2687006   0.2687006), wk =   0.0066445
        k(   64) = (  -0.2616295  -0.2616295   0.2616295), wk =   0.0066445
        k(   65) = (  -0.2545584  -0.2545584   0.2545584), wk =   0.0066445
        k(   66) = (  -0.2474874  -0.2474874   0.2474874), wk =   0.0066445
        k(   67) = (  -0.2404163  -0.2404163   0.2404163), wk =   0.0066445
        k(   68) = (  -0.2333452  -0.2333452   0.2333452), wk =   0.0066445
        k(   69) = (  -0.2262742  -0.2262742   0.2262742), wk =   0.0066445
        k(   70) = (  -0.2192031  -0.2192031   0.2192031), wk =   0.0066445
        k(   71) = (  -0.2121320  -0.2121320   0.2121320), wk =   0.0066445
        k(   72) = (  -0.2050610  -0.2050610   0.2050610), wk =   0.0066445
        k(   73) = (  -0.1979899  -0.1979899   0.1979899), wk =   0.0066445
        k(   74) = (  -0.1909188  -0.1909188   0.1909188), wk =   0.0066445
        k(   75) = (  -0.1838478  -0.1838478   0.1838478), wk =   0.0066445
        k(   76) = (  -0.1767767  -0.1767767   0.1767767), wk =   0.0066445
        k(   77) = (  -0.1697056  -0.1697056   0.1697056), wk =   0.0066445
        k(   78) = (  -0.1626346  -0.1626346   0.1626346), wk =   0.0066445
        k(   79) = (  -0.1555635  -0.1555635   0.1555635), wk =   0.0066445
        k(   80) = (  -0.1484924  -0.1484924   0.1484924), wk =   0.0066445
        k(   81) = (  -0.1414214  -0.1414214   0.1414214), wk =   0.0066445
        k(   82) = (  -0.1343503  -0.1343503   0.1343503), wk =   0.0066445
        k(   83) = (  -0.1272792  -0.1272792   0.1272792), wk =   0.0066445
        k(   84) = (  -0.1202082  -0.1202082   0.1202082), wk =   0.0066445
        k(   85) = (  -0.1131371  -0.1131371   0.1131371), wk =   0.0066445
        k(   86) = (  -0.1060660  -0.1060660   0.1060660), wk =   0.0066445
        k(   87) = (  -0.0989949  -0.0989949   0.0989949), wk =   0.0066445
        k(   88) = (  -0.0919239  -0.0919239   0.0919239), wk =   0.0066445
        k(   89) = (  -0.0848528  -0.0848528   0.0848528), wk =   0.0066445
        k(   90) = (  -0.0777817  -0.0777817   0.0777817), wk =   0.0066445
        k(   91) = (  -0.0707107  -0.0707107   0.0707107), wk =   0.0066445
        k(   92) = (  -0.0636396  -0.0636396   0.0636396), wk =   0.0066445
        k(   93) = (  -0.0565685  -0.0565685   0.0565685), wk =   0.0066445
        k(   94) = (  -0.0494975  -0.0494975   0.0494975), wk =   0.0066445
        k(   95) = (  -0.0424264  -0.0424264   0.0424264), wk =   0.0066445
        k(   96) = (  -0.0353553  -0.0353553   0.0353553), wk =   0.0066445
        k(   97) = (  -0.0282843  -0.0282843   0.0282843), wk =   0.0066445
        k(   98) = (  -0.0212132  -0.0212132   0.0212132), wk =   0.0066445
        k(   99) = (  -0.0141421  -0.0141421   0.0141421), wk =   0.0066445
        k(  100) = (  -0.0070711  -0.0070711   0.0070711), wk =   0.0066445
        k(  101) = (   0.0000000   0.0000000   0.0000000), wk =   0.0066445
        k(  102) = (   0.0000000  -0.0141421   0.0000000), wk =   0.0066445
        k(  103) = (   0.0000000  -0.0282843   0.0000000), wk =   0.0066445
        k(  104) = (   0.0000000  -0.0424264   0.0000000), wk =   0.0066445
        k(  105) = (   0.0000000  -0.0565685   0.0000000), wk =   0.0066445
        k(  106) = (   0.0000000  -0.0707107   0.0000000), wk =   0.0066445
        k(  107) = (   0.0000000  -0.0848528   0.0000000), wk =   0.0066445
        k(  108) = (   0.0000000  -0.0989949   0.0000000), wk =   0.0066445
        k(  109) = (   0.0000000  -0.1131371   0.0000000), wk =   0.0066445
        k(  110) = (   0.0000000  -0.1272792   0.0000000), wk =   0.0066445
        k(  111) = (   0.0000000  -0.1414214   0.0000000), wk =   0.0066445
        k(  112) = (   0.0000000  -0.1555635   0.0000000), wk =   0.0066445
        k(  113) = (   0.0000000  -0.1697056   0.0000000), wk =   0.0066445
        k(  114) = (   0.0000000  -0.1838478   0.0000000), wk =   0.0066445
        k(  115) = (   0.0000000  -0.1979899   0.0000000), wk =   0.0066445
        k(  116) = (   0.0000000  -0.2121320   0.0000000), wk =   0.0066445
        k(  117) = (   0.0000000  -0.2262742   0.0000000), wk =   0.0066445
        k(  118) = (   0.0000000  -0.2404163   0.0000000), wk =   0.0066445
        k(  119) = (   0.0000000  -0.2545584   0.0000000), wk =   0.0066445
        k(  120) = (   0.0000000  -0.2687006   0.0000000), wk =   0.0066445
        k(  121) = (   0.0000000  -0.2828427   0.0000000), wk =   0.0066445
        k(  122) = (   0.0000000  -0.2969848   0.0000000), wk =   0.0066445
        k(  123) = (   0.0000000  -0.3111270   0.0000000), wk =   0.0066445
        k(  124) = (   0.0000000  -0.3252691   0.0000000), wk =   0.0066445
        k(  125) = (   0.0000000  -0.3394113   0.0000000), wk =   0.0066445
        k(  126) = (   0.0000000  -0.3535534   0.0000000), wk =   0.0066445
        k(  127) = (   0.0000000  -0.3676955   0.0000000), wk =   0.0066445
        k(  128) = (   0.0000000  -0.3818377   0.0000000), wk =   0.0066445
        k(  129) = (   0.0000000  -0.3959798   0.0000000), wk =   0.0066445
        k(  130) = (   0.0000000  -0.4101219   0.0000000), wk =   0.0066445
        k(  131) = (   0.0000000  -0.4242641   0.0000000), wk =   0.0066445
        k(  132) = (   0.0000000  -0.4384062   0.0000000), wk =   0.0066445
        k(  133) = (   0.0000000  -0.4525483   0.0000000), wk =   0.0066445
        k(  134) = (   0.0000000  -0.4666905   0.0000000), wk =   0.0066445
        k(  135) = (   0.0000000  -0.4808326   0.0000000), wk =   0.0066445
        k(  136) = (   0.0000000  -0.4949747   0.0000000), wk =   0.0066445
        k(  137) = (   0.0000000  -0.5091169   0.0000000), wk =   0.0066445
        k(  138) = (   0.0000000  -0.5232590   0.0000000), wk =   0.0066445
        k(  139) = (   0.0000000  -0.5374012   0.0000000), wk =   0.0066445
        k(  140) = (   0.0000000  -0.5515433   0.0000000), wk =   0.0066445
        k(  141) = (   0.0000000  -0.5656854   0.0000000), wk =   0.0066445
        k(  142) = (   0.0000000  -0.5798276   0.0000000), wk =   0.0066445
        k(  143) = (   0.0000000  -0.5939697   0.0000000), wk =   0.0066445
        k(  144) = (   0.0000000  -0.6081118   0.0000000), wk =   0.0066445
        k(  145) = (   0.0000000  -0.6222540   0.0000000), wk =   0.0066445
        k(  146) = (   0.0000000  -0.6363961   0.0000000), wk =   0.0066445
        k(  147) = (   0.0000000  -0.6505382   0.0000000), wk =   0.0066445
        k(  148) = (   0.0000000  -0.6646804   0.0000000), wk =   0.0066445
        k(  149) = (   0.0000000  -0.6788225   0.0000000), wk =   0.0066445
        k(  150) = (   0.0000000  -0.6929646   0.0000000), wk =   0.0066445
        k(  151) = (   0.0000000  -0.7071068   0.0000000), wk =   0.0066445
        k(  152) = (  -0.0070711  -0.7071068   0.0000000), wk =   0.0066445
        k(  153) = (  -0.0141421  -0.7071068   0.0000000), wk =   0.0066445
        k(  154) = (  -0.0212132  -0.7071068   0.0000000), wk =   0.0066445
        k(  155) = (  -0.0282843  -0.7071068   0.0000000), wk =   0.0066445
        k(  156) = (  -0.0353553  -0.7071068   0.0000000), wk =   0.0066445
        k(  157) = (  -0.0424264  -0.7071068   0.0000000), wk =   0.0066445
        k(  158) = (  -0.0494975  -0.7071068   0.0000000), wk =   0.0066445
        k(  159) = (  -0.0565685  -0.7071068   0.0000000), wk =   0.0066445
        k(  160) = (  -0.0636396  -0.7071068   0.0000000), wk =   0.0066445
        k(  161) = (  -0.0707107  -0.7071068   0.0000000), wk =   0.0066445
        k(  162) = (  -0.0777817  -0.7071068   0.0000000), wk =   0.0066445
        k(  163) = (  -0.0848528  -0.7071068   0.0000000), wk =   0.0066445
        k(  164) = (  -0.0919239  -0.7071068  -0.0000000), wk =   0.0066445
        k(  165) = (  -0.0989949  -0.7071068   0.0000000), wk =   0.0066445
        k(  166) = (  -0.1060660  -0.7071068  -0.0000000), wk =   0.0066445
        k(  167) = (  -0.1131371  -0.7071068  -0.0000000), wk =   0.0066445
        k(  168) = (  -0.1202082  -0.7071068   0.0000000), wk =   0.0066445
        k(  169) = (  -0.1272792  -0.7071068   0.0000000), wk =   0.0066445
        k(  170) = (  -0.1343503  -0.7071068   0.0000000), wk =   0.0066445
        k(  171) = (  -0.1414214  -0.7071068  -0.0000000), wk =   0.0066445
        k(  172) = (  -0.1484924  -0.7071068   0.0000000), wk =   0.0066445
        k(  173) = (  -0.1555635  -0.7071068   0.0000000), wk =   0.0066445
        k(  174) = (  -0.1626346  -0.7071068   0.0000000), wk =   0.0066445
        k(  175) = (  -0.1697056  -0.7071068   0.0000000), wk =   0.0066445
        k(  176) = (  -0.1767767  -0.7071068   0.0000000), wk =   0.0066445
        k(  177) = (  -0.1838478  -0.7071068   0.0000000), wk =   0.0066445
        k(  178) = (  -0.1909188  -0.7071068   0.0000000), wk =   0.0066445
        k(  179) = (  -0.1979899  -0.7071068   0.0000000), wk =   0.0066445
        k(  180) = (  -0.2050610  -0.7071068   0.0000000), wk =   0.0066445
        k(  181) = (  -0.2121320  -0.7071068   0.0000000), wk =   0.0066445
        k(  182) = (  -0.2192031  -0.7071068   0.0000000), wk =   0.0066445
        k(  183) = (  -0.2262742  -0.7071068   0.0000000), wk =   0.0066445
        k(  184) = (  -0.2333452  -0.7071068   0.0000000), wk =   0.0066445
        k(  185) = (  -0.2404163  -0.7071068   0.0000000), wk =   0.0066445
        k(  186) = (  -0.2474874  -0.7071068   0.0000000), wk =   0.0066445
        k(  187) = (  -0.2545584  -0.7071068  -0.0000000), wk =   0.0066445
        k(  188) = (  -0.2616295  -0.7071068   0.0000000), wk =   0.0066445
        k(  189) = (  -0.2687006  -0.7071068  -0.0000000), wk =   0.0066445
        k(  190) = (  -0.2757716  -0.7071068   0.0000000), wk =   0.0066445
        k(  191) = (  -0.2828427  -0.7071068   0.0000000), wk =   0.0066445
        k(  192) = (  -0.2899138  -0.7071068   0.0000000), wk =   0.0066445
        k(  193) = (  -0.2969848  -0.7071068   0.0000000), wk =   0.0066445
        k(  194) = (  -0.3040559  -0.7071068  -0.0000000), wk =   0.0066445
        k(  195) = (  -0.3111270  -0.7071068   0.0000000), wk =   0.0066445
        k(  196) = (  -0.3181981  -0.7071068  -0.0000000), wk =   0.0066445
        k(  197) = (  -0.3252691  -0.7071068   0.0000000), wk =   0.0066445
        k(  198) = (  -0.3323402  -0.7071068   0.0000000), wk =   0.0066445
        k(  199) = (  -0.3394113  -0.7071068   0.0000000), wk =   0.0066445
        k(  200) = (  -0.3464823  -0.7071068   0.0000000), wk =   0.0066445
        k(  201) = (  -0.3535534  -0.7071068   0.0000000), wk =   0.0066445
        k(  202) = (  -0.3606245  -0.6929646   0.0000000), wk =   0.0066445
        k(  203) = (  -0.3676955  -0.6788225   0.0000000), wk =   0.0066445
        k(  204) = (  -0.3747666  -0.6646804   0.0000000), wk =   0.0066445
        k(  205) = (  -0.3818377  -0.6505382   0.0000000), wk =   0.0066445
        k(  206) = (  -0.3889087  -0.6363961  -0.0000000), wk =   0.0066445
        k(  207) = (  -0.3959798  -0.6222540   0.0000000), wk =   0.0066445
        k(  208) = (  -0.4030509  -0.6081118  -0.0000000), wk =   0.0066445
        k(  209) = (  -0.4101219  -0.5939697   0.0000000), wk =   0.0066445
        k(  210) = (  -0.4171930  -0.5798276  -0.0000000), wk =   0.0066445
        k(  211) = (  -0.4242641  -0.5656854   0.0000000), wk =   0.0066445
        k(  212) = (  -0.4313351  -0.5515433   0.0000000), wk =   0.0066445
        k(  213) = (  -0.4384062  -0.5374012  -0.0000000), wk =   0.0066445
        k(  214) = (  -0.4454773  -0.5232590   0.0000000), wk =   0.0066445
        k(  215) = (  -0.4525483  -0.5091169  -0.0000000), wk =   0.0066445
        k(  216) = (  -0.4596194  -0.4949747   0.0000000), wk =   0.0066445
        k(  217) = (  -0.4666905  -0.4808326   0.0000000), wk =   0.0066445
        k(  218) = (  -0.4737615  -0.4666905   0.0000000), wk =   0.0066445
        k(  219) = (  -0.4808326  -0.4525483   0.0000000), wk =   0.0066445
        k(  220) = (  -0.4879037  -0.4384062   0.0000000), wk =   0.0066445
        k(  221) = (  -0.4949747  -0.4242641   0.0000000), wk =   0.0066445
        k(  222) = (  -0.5020458  -0.4101219  -0.0000000), wk =   0.0066445
        k(  223) = (  -0.5091169  -0.3959798   0.0000000), wk =   0.0066445
        k(  224) = (  -0.5161880  -0.3818377   0.0000000), wk =   0.0066445
        k(  225) = (  -0.5232590  -0.3676955   0.0000000), wk =   0.0066445
        k(  226) = (  -0.5303301  -0.3535534   0.0000000), wk =   0.0066445
        k(  227) = (  -0.5374012  -0.3394113  -0.0000000), wk =   0.0066445
        k(  228) = (  -0.5444722  -0.3252691   0.0000000), wk =   0.0066445
        k(  229) = (  -0.5515433  -0.3111270   0.0000000), wk =   0.0066445
        k(  230) = (  -0.5586144  -0.2969848  -0.0000000), wk =   0.0066445
        k(  231) = (  -0.5656854  -0.2828427  -0.0000000), wk =   0.0066445
        k(  232) = (  -0.5727565  -0.2687006   0.0000000), wk =   0.0066445
        k(  233) = (  -0.5798276  -0.2545584   0.0000000), wk =   0.0066445
        k(  234) = (  -0.5868986  -0.2404163   0.0000000), wk =   0.0066445
        k(  235) = (  -0.5939697  -0.2262742  -0.0000000), wk =   0.0066445
        k(  236) = (  -0.6010408  -0.2121320  -0.0000000), wk =   0.0066445
        k(  237) = (  -0.6081118  -0.1979899   0.0000000), wk =   0.0066445
        k(  238) = (  -0.6151829  -0.1838478   0.0000000), wk =   0.0066445
        k(  239) = (  -0.6222540  -0.1697056   0.0000000), wk =   0.0066445
        k(  240) = (  -0.6293250  -0.1555635  -0.0000000), wk =   0.0066445
        k(  241) = (  -0.6363961  -0.1414214   0.0000000), wk =   0.0066445
        k(  242) = (  -0.6434672  -0.1272792  -0.0000000), wk =   0.0066445
        k(  243) = (  -0.6505382  -0.1131371   0.0000000), wk =   0.0066445
        k(  244) = (  -0.6576093  -0.0989949   0.0000000), wk =   0.0066445
        k(  245) = (  -0.6646804  -0.0848528   0.0000000), wk =   0.0066445
        k(  246) = (  -0.6717514  -0.0707107   0.0000000), wk =   0.0066445
        k(  247) = (  -0.6788225  -0.0565685   0.0000000), wk =   0.0066445
        k(  248) = (  -0.6858936  -0.0424264   0.0000000), wk =   0.0066445
        k(  249) = (  -0.6929646  -0.0282843   0.0000000), wk =   0.0066445
        k(  250) = (  -0.7000357  -0.0141421   0.0000000), wk =   0.0066445
        k(  251) = (  -0.7071068   0.0000000   0.0000000), wk =   0.0066445
        k(  252) = (  -0.6929646   0.0000000   0.0000000), wk =   0.0066445
        k(  253) = (  -0.6788225   0.0000000   0.0000000), wk =   0.0066445
        k(  254) = (  -0.6646804   0.0000000   0.0000000), wk =   0.0066445
        k(  255) = (  -0.6505382   0.0000000   0.0000000), wk =   0.0066445
        k(  256) = (  -0.6363961   0.0000000   0.0000000), wk =   0.0066445
        k(  257) = (  -0.6222540   0.0000000   0.0000000), wk =   0.0066445
        k(  258) = (  -0.6081118   0.0000000   0.0000000), wk =   0.0066445
        k(  259) = (  -0.5939697   0.0000000   0.0000000), wk =   0.0066445
        k(  260) = (  -0.5798276   0.0000000   0.0000000), wk =   0.0066445
        k(  261) = (  -0.5656854   0.0000000   0.0000000), wk =   0.0066445
        k(  262) = (  -0.5515433   0.0000000   0.0000000), wk =   0.0066445
        k(  263) = (  -0.5374012   0.0000000   0.0000000), wk =   0.0066445
        k(  264) = (  -0.5232590   0.0000000   0.0000000), wk =   0.0066445
        k(  265) = (  -0.5091169   0.0000000   0.0000000), wk =   0.0066445
        k(  266) = (  -0.4949747   0.0000000   0.0000000), wk =   0.0066445
        k(  267) = (  -0.4808326   0.0000000   0.0000000), wk =   0.0066445
        k(  268) = (  -0.4666905   0.0000000   0.0000000), wk =   0.0066445
        k(  269) = (  -0.4525483   0.0000000   0.0000000), wk =   0.0066445
        k(  270) = (  -0.4384062   0.0000000   0.0000000), wk =   0.0066445
        k(  271) = (  -0.4242641   0.0000000   0.0000000), wk =   0.0066445
        k(  272) = (  -0.4101219   0.0000000   0.0000000), wk =   0.0066445
        k(  273) = (  -0.3959798   0.0000000   0.0000000), wk =   0.0066445
        k(  274) = (  -0.3818377   0.0000000   0.0000000), wk =   0.0066445
        k(  275) = (  -0.3676955   0.0000000   0.0000000), wk =   0.0066445
        k(  276) = (  -0.3535534   0.0000000   0.0000000), wk =   0.0066445
        k(  277) = (  -0.3394113   0.0000000   0.0000000), wk =   0.0066445
        k(  278) = (  -0.3252691   0.0000000   0.0000000), wk =   0.0066445
        k(  279) = (  -0.3111270   0.0000000   0.0000000), wk =   0.0066445
        k(  280) = (  -0.2969848   0.0000000   0.0000000), wk =   0.0066445
        k(  281) = (  -0.2828427   0.0000000   0.0000000), wk =   0.0066445
        k(  282) = (  -0.2687006   0.0000000   0.0000000), wk =   0.0066445
        k(  283) = (  -0.2545584   0.0000000   0.0000000), wk =   0.0066445
        k(  284) = (  -0.2404163   0.0000000   0.0000000), wk =   0.0066445
        k(  285) = (  -0.2262742   0.0000000   0.0000000), wk =   0.0066445
        k(  286) = (  -0.2121320   0.0000000   0.0000000), wk =   0.0066445
        k(  287) = (  -0.1979899   0.0000000   0.0000000), wk =   0.0066445
        k(  288) = (  -0.1838478   0.0000000   0.0000000), wk =   0.0066445
        k(  289) = (  -0.1697056   0.0000000   0.0000000), wk =   0.0066445
        k(  290) = (  -0.1555635   0.0000000   0.0000000), wk =   0.0066445
        k(  291) = (  -0.1414214   0.0000000   0.0000000), wk =   0.0066445
        k(  292) = (  -0.1272792   0.0000000   0.0000000), wk =   0.0066445
        k(  293) = (  -0.1131371   0.0000000   0.0000000), wk =   0.0066445
        k(  294) = (  -0.0989949   0.0000000   0.0000000), wk =   0.0066445
        k(  295) = (  -0.0848528   0.0000000   0.0000000), wk =   0.0066445
        k(  296) = (  -0.0707107   0.0000000   0.0000000), wk =   0.0066445
        k(  297) = (  -0.0565685   0.0000000   0.0000000), wk =   0.0066445
        k(  298) = (  -0.0424264   0.0000000   0.0000000), wk =   0.0066445
        k(  299) = (  -0.0282843   0.0000000   0.0000000), wk =   0.0066445
        k(  300) = (  -0.0141421   0.0000000   0.0000000), wk =   0.0066445
        k(  301) = (   0.0000000   0.0000000   0.0000000), wk =   0.0066445

                       cryst. coord.
        k(    1) = (  -0.5000000  -0.2500000  -0.7500000), wk =   0.0066445
        k(    2) = (  -0.4900000  -0.2450000  -0.7450000), wk =   0.0066445
        k(    3) = (  -0.4800000  -0.2400000  -0.7400000), wk =   0.0066445
        k(    4) = (  -0.4700000  -0.2350000  -0.7350000), wk =   0.0066445
        k(    5) = (  -0.4600000  -0.2300000  -0.7300000), wk =   0.0066445
        k(    6) = (  -0.4500000  -0.2250000  -0.7250000), wk =   0.0066445
        k(    7) = (  -0.4400000  -0.2200000  -0.7200000), wk =   0.0066445
        k(    8) = (  -0.4300000  -0.2150000  -0.7150000), wk =   0.0066445
        k(    9) = (  -0.4200000  -0.2100000  -0.7100000), wk =   0.0066445
        k(   10) = (  -0.4100000  -0.2050000  -0.7050000), wk =   0.0066445
        k(   11) = (  -0.4000000  -0.2000000  -0.7000000), wk =   0.0066445
        k(   12) = (  -0.3900000  -0.1950000  -0.6950000), wk =   0.0066445
        k(   13) = (  -0.3800000  -0.1900000  -0.6900000), wk =   0.0066445
        k(   14) = (  -0.3700000  -0.1850000  -0.6850000), wk =   0.0066445
        k(   15) = (  -0.3600000  -0.1800000  -0.6800000), wk =   0.0066445
        k(   16) = (  -0.3500000  -0.1750000  -0.6750000), wk =   0.0066445
        k(   17) = (  -0.3400000  -0.1700000  -0.6700000), wk =   0.0066445
        k(   18) = (  -0.3300000  -0.1650000  -0.6650000), wk =   0.0066445
        k(   19) = (  -0.3200000  -0.1600000  -0.6600000), wk =   0.0066445
        k(   20) = (  -0.3100000  -0.1550000  -0.6550000), wk =   0.0066445
        k(   21) = (  -0.3000000  -0.1500000  -0.6500000), wk =   0.0066445
        k(   22) = (  -0.2900000  -0.1450000  -0.6450000), wk =   0.0066445
        k(   23) = (  -0.2800000  -0.1400000  -0.6400000), wk =   0.0066445
        k(   24) = (  -0.2700000  -0.1350000  -0.6350000), wk =   0.0066445
        k(   25) = (  -0.2600000  -0.1300000  -0.6300000), wk =   0.0066445
        k(   26) = (  -0.2500000  -0.1250000  -0.6250000), wk =   0.0066445
        k(   27) = (  -0.2400000  -0.1200000  -0.6200000), wk =   0.0066445
        k(   28) = (  -0.2300000  -0.1150000  -0.6150000), wk =   0.0066445
        k(   29) = (  -0.2200000  -0.1100000  -0.6100000), wk =   0.0066445
        k(   30) = (  -0.2100000  -0.1050000  -0.6050000), wk =   0.0066445
        k(   31) = (  -0.2000000  -0.1000000  -0.6000000), wk =   0.0066445
        k(   32) = (  -0.1900000  -0.0950000  -0.5950000), wk =   0.0066445
        k(   33) = (  -0.1800000  -0.0900000  -0.5900000), wk =   0.0066445
        k(   34) = (  -0.1700000  -0.0850000  -0.5850000), wk =   0.0066445
        k(   35) = (  -0.1600000  -0.0800000  -0.5800000), wk =   0.0066445
        k(   36) = (  -0.1500000  -0.0750000  -0.5750000), wk =   0.0066445
        k(   37) = (  -0.1400000  -0.0700000  -0.5700000), wk =   0.0066445
        k(   38) = (  -0.1300000  -0.0650000  -0.5650000), wk =   0.0066445
        k(   39) = (  -0.1200000  -0.0600000  -0.5600000), wk =   0.0066445
        k(   40) = (  -0.1100000  -0.0550000  -0.5550000), wk =   0.0066445
        k(   41) = (  -0.1000000  -0.0500000  -0.5500000), wk =   0.0066445
        k(   42) = (  -0.0900000  -0.0450000  -0.5450000), wk =   0.0066445
        k(   43) = (  -0.0800000  -0.0400000  -0.5400000), wk =   0.0066445
        k(   44) = (  -0.0700000  -0.0350000  -0.5350000), wk =   0.0066445
        k(   45) = (  -0.0600000  -0.0300000  -0.5300000), wk =   0.0066445
        k(   46) = (  -0.0500000  -0.0250000  -0.5250000), wk =   0.0066445
        k(   47) = (  -0.0400000  -0.0200000  -0.5200000), wk =   0.0066445
        k(   48) = (  -0.0300000  -0.0150000  -0.5150000), wk =   0.0066445
        k(   49) = (  -0.0200000  -0.0100000  -0.5100000), wk =   0.0066445
        k(   50) = (  -0.0100000  -0.0050000  -0.5050000), wk =   0.0066445
        k(   51) = (   0.0000000   0.0000000  -0.5000000), wk =   0.0066445
        k(   52) = (   0.0000000   0.0000000  -0.4900000), wk =   0.0066445
        k(   53) = (   0.0000000   0.0000000  -0.4800000), wk =   0.0066445
        k(   54) = (   0.0000000   0.0000000  -0.4700000), wk =   0.0066445
        k(   55) = (   0.0000000   0.0000000  -0.4600000), wk =   0.0066445
        k(   56) = (   0.0000000   0.0000000  -0.4500000), wk =   0.0066445
        k(   57) = (   0.0000000   0.0000000  -0.4400000), wk =   0.0066445
        k(   58) = (   0.0000000   0.0000000  -0.4300000), wk =   0.0066445
        k(   59) = (   0.0000000   0.0000000  -0.4200000), wk =   0.0066445
        k(   60) = (   0.0000000   0.0000000  -0.4100000), wk =   0.0066445
        k(   61) = (   0.0000000   0.0000000  -0.4000000), wk =   0.0066445
        k(   62) = (   0.0000000   0.0000000  -0.3900000), wk =   0.0066445
        k(   63) = (   0.0000000   0.0000000  -0.3800000), wk =   0.0066445
        k(   64) = (   0.0000000   0.0000000  -0.3700000), wk =   0.0066445
        k(   65) = (   0.0000000   0.0000000  -0.3600000), wk =   0.0066445
        k(   66) = (   0.0000000   0.0000000  -0.3500000), wk =   0.0066445
        k(   67) = (   0.0000000   0.0000000  -0.3400000), wk =   0.0066445
        k(   68) = (   0.0000000   0.0000000  -0.3300000), wk =   0.0066445
        k(   69) = (   0.0000000   0.0000000  -0.3200000), wk =   0.0066445
        k(   70) = (   0.0000000   0.0000000  -0.3100000), wk =   0.0066445
        k(   71) = (   0.0000000   0.0000000  -0.3000000), wk =   0.0066445
        k(   72) = (   0.0000000   0.0000000  -0.2900000), wk =   0.0066445
        k(   73) = (   0.0000000   0.0000000  -0.2800000), wk =   0.0066445
        k(   74) = (   0.0000000   0.0000000  -0.2700000), wk =   0.0066445
        k(   75) = (   0.0000000   0.0000000  -0.2600000), wk =   0.0066445
        k(   76) = (   0.0000000   0.0000000  -0.2500000), wk =   0.0066445
        k(   77) = (   0.0000000   0.0000000  -0.2400000), wk =   0.0066445
        k(   78) = (   0.0000000   0.0000000  -0.2300000), wk =   0.0066445
        k(   79) = (   0.0000000   0.0000000  -0.2200000), wk =   0.0066445
        k(   80) = (   0.0000000   0.0000000  -0.2100000), wk =   0.0066445
        k(   81) = (   0.0000000   0.0000000  -0.2000000), wk =   0.0066445
        k(   82) = (   0.0000000   0.0000000  -0.1900000), wk =   0.0066445
        k(   83) = (   0.0000000   0.0000000  -0.1800000), wk =   0.0066445
        k(   84) = (   0.0000000   0.0000000  -0.1700000), wk =   0.0066445
        k(   85) = (   0.0000000   0.0000000  -0.1600000), wk =   0.0066445
        k(   86) = (   0.0000000   0.0000000  -0.1500000), wk =   0.0066445
        k(   87) = (   0.0000000   0.0000000  -0.1400000), wk =   0.0066445
        k(   88) = (   0.0000000   0.0000000  -0.1300000), wk =   0.0066445
        k(   89) = (   0.0000000   0.0000000  -0.1200000), wk =   0.0066445
        k(   90) = (   0.0000000   0.0000000  -0.1100000), wk =   0.0066445
        k(   91) = (   0.0000000   0.0000000  -0.1000000), wk =   0.0066445
        k(   92) = (   0.0000000   0.0000000  -0.0900000), wk =   0.0066445
        k(   93) = (   0.0000000   0.0000000  -0.0800000), wk =   0.0066445
        k(   94) = (   0.0000000   0.0000000  -0.0700000), wk =   0.0066445
        k(   95) = (   0.0000000   0.0000000  -0.0600000), wk =   0.0066445
        k(   96) = (   0.0000000   0.0000000  -0.0500000), wk =   0.0066445
        k(   97) = (   0.0000000   0.0000000  -0.0400000), wk =   0.0066445
        k(   98) = (   0.0000000   0.0000000  -0.0300000), wk =   0.0066445
        k(   99) = (   0.0000000   0.0000000  -0.0200000), wk =   0.0066445
        k(  100) = (   0.0000000   0.0000000  -0.0100000), wk =   0.0066445
        k(  101) = (   0.0000000   0.0000000   0.0000000), wk =   0.0066445
        k(  102) = (  -0.0100000   0.0000000  -0.0100000), wk =   0.0066445
        k(  103) = (  -0.0200000   0.0000000  -0.0200000), wk =   0.0066445
        k(  104) = (  -0.0300000   0.0000000  -0.0300000), wk =   0.0066445
        k(  105) = (  -0.0400000   0.0000000  -0.0400000), wk =   0.0066445
        k(  106) = (  -0.0500000   0.0000000  -0.0500000), wk =   0.0066445
        k(  107) = (  -0.0600000   0.0000000  -0.0600000), wk =   0.0066445
        k(  108) = (  -0.0700000   0.0000000  -0.0700000), wk =   0.0066445
        k(  109) = (  -0.0800000   0.0000000  -0.0800000), wk =   0.0066445
        k(  110) = (  -0.0900000   0.0000000  -0.0900000), wk =   0.0066445
        k(  111) = (  -0.1000000   0.0000000  -0.1000000), wk =   0.0066445
        k(  112) = (  -0.1100000   0.0000000  -0.1100000), wk =   0.0066445
        k(  113) = (  -0.1200000   0.0000000  -0.1200000), wk =   0.0066445
        k(  114) = (  -0.1300000   0.0000000  -0.1300000), wk =   0.0066445
        k(  115) = (  -0.1400000   0.0000000  -0.1400000), wk =   0.0066445
        k(  116) = (  -0.1500000   0.0000000  -0.1500000), wk =   0.0066445
        k(  117) = (  -0.1600000   0.0000000  -0.1600000), wk =   0.0066445
        k(  118) = (  -0.1700000   0.0000000  -0.1700000), wk =   0.0066445
        k(  119) = (  -0.1800000   0.0000000  -0.1800000), wk =   0.0066445
        k(  120) = (  -0.1900000   0.0000000  -0.1900000), wk =   0.0066445
        k(  121) = (  -0.2000000   0.0000000  -0.2000000), wk =   0.0066445
        k(  122) = (  -0.2100000   0.0000000  -0.2100000), wk =   0.0066445
        k(  123) = (  -0.2200000   0.0000000  -0.2200000), wk =   0.0066445
        k(  124) = (  -0.2300000   0.0000000  -0.2300000), wk =   0.0066445
        k(  125) = (  -0.2400000   0.0000000  -0.2400000), wk =   0.0066445
        k(  126) = (  -0.2500000   0.0000000  -0.2500000), wk =   0.0066445
        k(  127) = (  -0.2600000   0.0000000  -0.2600000), wk =   0.0066445
        k(  128) = (  -0.2700000   0.0000000  -0.2700000), wk =   0.0066445
        k(  129) = (  -0.2800000   0.0000000  -0.2800000), wk =   0.0066445
        k(  130) = (  -0.2900000   0.0000000  -0.2900000), wk =   0.0066445
        k(  131) = (  -0.3000000   0.0000000  -0.3000000), wk =   0.0066445
        k(  132) = (  -0.3100000   0.0000000  -0.3100000), wk =   0.0066445
        k(  133) = (  -0.3200000   0.0000000  -0.3200000), wk =   0.0066445
        k(  134) = (  -0.3300000   0.0000000  -0.3300000), wk =   0.0066445
        k(  135) = (  -0.3400000   0.0000000  -0.3400000), wk =   0.0066445
        k(  136) = (  -0.3500000   0.0000000  -0.3500000), wk =   0.0066445
        k(  137) = (  -0.3600000   0.0000000  -0.3600000), wk =   0.0066445
        k(  138) = (  -0.3700000   0.0000000  -0.3700000), wk =   0.0066445
        k(  139) = (  -0.3800000   0.0000000  -0.3800000), wk =   0.0066445
        k(  140) = (  -0.3900000   0.0000000  -0.3900000), wk =   0.0066445
        k(  141) = (  -0.4000000   0.0000000  -0.4000000), wk =   0.0066445
        k(  142) = (  -0.4100000   0.0000000  -0.4100000), wk =   0.0066445
        k(  143) = (  -0.4200000   0.0000000  -0.4200000), wk =   0.0066445
        k(  144) = (  -0.4300000   0.0000000  -0.4300000), wk =   0.0066445
        k(  145) = (  -0.4400000   0.0000000  -0.4400000), wk =   0.0066445
        k(  146) = (  -0.4500000   0.0000000  -0.4500000), wk =   0.0066445
        k(  147) = (  -0.4600000   0.0000000  -0.4600000), wk =   0.0066445
        k(  148) = (  -0.4700000   0.0000000  -0.4700000), wk =   0.0066445
        k(  149) = (  -0.4800000   0.0000000  -0.4800000), wk =   0.0066445
        k(  150) = (  -0.4900000   0.0000000  -0.4900000), wk =   0.0066445
        k(  151) = (  -0.5000000   0.0000000  -0.5000000), wk =   0.0066445
        k(  152) = (  -0.5000000  -0.0050000  -0.5050000), wk =   0.0066445
        k(  153) = (  -0.5000000  -0.0100000  -0.5100000), wk =   0.0066445
        k(  154) = (  -0.5000000  -0.0150000  -0.5150000), wk =   0.0066445
        k(  155) = (  -0.5000000  -0.0200000  -0.5200000), wk =   0.0066445
        k(  156) = (  -0.5000000  -0.0250000  -0.5250000), wk =   0.0066445
        k(  157) = (  -0.5000000  -0.0300000  -0.5300000), wk =   0.0066445
        k(  158) = (  -0.5000000  -0.0350000  -0.5350000), wk =   0.0066445
        k(  159) = (  -0.5000000  -0.0400000  -0.5400000), wk =   0.0066445
        k(  160) = (  -0.5000000  -0.0450000  -0.5450000), wk =   0.0066445
        k(  161) = (  -0.5000000  -0.0500000  -0.5500000), wk =   0.0066445
        k(  162) = (  -0.5000000  -0.0550000  -0.5550000), wk =   0.0066445
        k(  163) = (  -0.5000000  -0.0600000  -0.5600000), wk =   0.0066445
        k(  164) = (  -0.5000000  -0.0650000  -0.5650000), wk =   0.0066445
        k(  165) = (  -0.5000000  -0.0700000  -0.5700000), wk =   0.0066445
        k(  166) = (  -0.5000000  -0.0750000  -0.5750000), wk =   0.0066445
        k(  167) = (  -0.5000000  -0.0800000  -0.5800000), wk =   0.0066445
        k(  168) = (  -0.5000000  -0.0850000  -0.5850000), wk =   0.0066445
        k(  169) = (  -0.5000000  -0.0900000  -0.5900000), wk =   0.0066445
        k(  170) = (  -0.5000000  -0.0950000  -0.5950000), wk =   0.0066445
        k(  171) = (  -0.5000000  -0.1000000  -0.6000000), wk =   0.0066445
        k(  172) = (  -0.5000000  -0.1050000  -0.6050000), wk =   0.0066445
        k(  173) = (  -0.5000000  -0.1100000  -0.6100000), wk =   0.0066445
        k(  174) = (  -0.5000000  -0.1150000  -0.6150000), wk =   0.0066445
        k(  175) = (  -0.5000000  -0.1200000  -0.6200000), wk =   0.0066445
        k(  176) = (  -0.5000000  -0.1250000  -0.6250000), wk =   0.0066445
        k(  177) = (  -0.5000000  -0.1300000  -0.6300000), wk =   0.0066445
        k(  178) = (  -0.5000000  -0.1350000  -0.6350000), wk =   0.0066445
        k(  179) = (  -0.5000000  -0.1400000  -0.6400000), wk =   0.0066445
        k(  180) = (  -0.5000000  -0.1450000  -0.6450000), wk =   0.0066445
        k(  181) = (  -0.5000000  -0.1500000  -0.6500000), wk =   0.0066445
        k(  182) = (  -0.5000000  -0.1550000  -0.6550000), wk =   0.0066445
        k(  183) = (  -0.5000000  -0.1600000  -0.6600000), wk =   0.0066445
        k(  184) = (  -0.5000000  -0.1650000  -0.6650000), wk =   0.0066445
        k(  185) = (  -0.5000000  -0.1700000  -0.6700000), wk =   0.0066445
        k(  186) = (  -0.5000000  -0.1750000  -0.6750000), wk =   0.0066445
        k(  187) = (  -0.5000000  -0.1800000  -0.6800000), wk =   0.0066445
        k(  188) = (  -0.5000000  -0.1850000  -0.6850000), wk =   0.0066445
        k(  189) = (  -0.5000000  -0.1900000  -0.6900000), wk =   0.0066445
        k(  190) = (  -0.5000000  -0.1950000  -0.6950000), wk =   0.0066445
        k(  191) = (  -0.5000000  -0.2000000  -0.7000000), wk =   0.0066445
        k(  192) = (  -0.5000000  -0.2050000  -0.7050000), wk =   0.0066445
        k(  193) = (  -0.5000000  -0.2100000  -0.7100000), wk =   0.0066445
        k(  194) = (  -0.5000000  -0.2150000  -0.7150000), wk =   0.0066445
        k(  195) = (  -0.5000000  -0.2200000  -0.7200000), wk =   0.0066445
        k(  196) = (  -0.5000000  -0.2250000  -0.7250000), wk =   0.0066445
        k(  197) = (  -0.5000000  -0.2300000  -0.7300000), wk =   0.0066445
        k(  198) = (  -0.5000000  -0.2350000  -0.7350000), wk =   0.0066445
        k(  199) = (  -0.5000000  -0.2400000  -0.7400000), wk =   0.0066445
        k(  200) = (  -0.5000000  -0.2450000  -0.7450000), wk =   0.0066445
        k(  201) = (  -0.5000000  -0.2500000  -0.7500000), wk =   0.0066445
        k(  202) = (  -0.4900000  -0.2550000  -0.7450000), wk =   0.0066445
        k(  203) = (  -0.4800000  -0.2600000  -0.7400000), wk =   0.0066445
        k(  204) = (  -0.4700000  -0.2650000  -0.7350000), wk =   0.0066445
        k(  205) = (  -0.4600000  -0.2700000  -0.7300000), wk =   0.0066445
        k(  206) = (  -0.4500000  -0.2750000  -0.7250000), wk =   0.0066445
        k(  207) = (  -0.4400000  -0.2800000  -0.7200000), wk =   0.0066445
        k(  208) = (  -0.4300000  -0.2850000  -0.7150000), wk =   0.0066445
        k(  209) = (  -0.4200000  -0.2900000  -0.7100000), wk =   0.0066445
        k(  210) = (  -0.4100000  -0.2950000  -0.7050000), wk =   0.0066445
        k(  211) = (  -0.4000000  -0.3000000  -0.7000000), wk =   0.0066445
        k(  212) = (  -0.3900000  -0.3050000  -0.6950000), wk =   0.0066445
        k(  213) = (  -0.3800000  -0.3100000  -0.6900000), wk =   0.0066445
        k(  214) = (  -0.3700000  -0.3150000  -0.6850000), wk =   0.0066445
        k(  215) = (  -0.3600000  -0.3200000  -0.6800000), wk =   0.0066445
        k(  216) = (  -0.3500000  -0.3250000  -0.6750000), wk =   0.0066445
        k(  217) = (  -0.3400000  -0.3300000  -0.6700000), wk =   0.0066445
        k(  218) = (  -0.3300000  -0.3350000  -0.6650000), wk =   0.0066445
        k(  219) = (  -0.3200000  -0.3400000  -0.6600000), wk =   0.0066445
        k(  220) = (  -0.3100000  -0.3450000  -0.6550000), wk =   0.0066445
        k(  221) = (  -0.3000000  -0.3500000  -0.6500000), wk =   0.0066445
        k(  222) = (  -0.2900000  -0.3550000  -0.6450000), wk =   0.0066445
        k(  223) = (  -0.2800000  -0.3600000  -0.6400000), wk =   0.0066445
        k(  224) = (  -0.2700000  -0.3650000  -0.6350000), wk =   0.0066445
        k(  225) = (  -0.2600000  -0.3700000  -0.6300000), wk =   0.0066445
        k(  226) = (  -0.2500000  -0.3750000  -0.6250000), wk =   0.0066445
        k(  227) = (  -0.2400000  -0.3800000  -0.6200000), wk =   0.0066445
        k(  228) = (  -0.2300000  -0.3850000  -0.6150000), wk =   0.0066445
        k(  229) = (  -0.2200000  -0.3900000  -0.6100000), wk =   0.0066445
        k(  230) = (  -0.2100000  -0.3950000  -0.6050000), wk =   0.0066445
        k(  231) = (  -0.2000000  -0.4000000  -0.6000000), wk =   0.0066445
        k(  232) = (  -0.1900000  -0.4050000  -0.5950000), wk =   0.0066445
        k(  233) = (  -0.1800000  -0.4100000  -0.5900000), wk =   0.0066445
        k(  234) = (  -0.1700000  -0.4150000  -0.5850000), wk =   0.0066445
        k(  235) = (  -0.1600000  -0.4200000  -0.5800000), wk =   0.0066445
        k(  236) = (  -0.1500000  -0.4250000  -0.5750000), wk =   0.0066445
        k(  237) = (  -0.1400000  -0.4300000  -0.5700000), wk =   0.0066445
        k(  238) = (  -0.1300000  -0.4350000  -0.5650000), wk =   0.0066445
        k(  239) = (  -0.1200000  -0.4400000  -0.5600000), wk =   0.0066445
        k(  240) = (  -0.1100000  -0.4450000  -0.5550000), wk =   0.0066445
        k(  241) = (  -0.1000000  -0.4500000  -0.5500000), wk =   0.0066445
        k(  242) = (  -0.0900000  -0.4550000  -0.5450000), wk =   0.0066445
        k(  243) = (  -0.0800000  -0.4600000  -0.5400000), wk =   0.0066445
        k(  244) = (  -0.0700000  -0.4650000  -0.5350000), wk =   0.0066445
        k(  245) = (  -0.0600000  -0.4700000  -0.5300000), wk =   0.0066445
        k(  246) = (  -0.0500000  -0.4750000  -0.5250000), wk =   0.0066445
        k(  247) = (  -0.0400000  -0.4800000  -0.5200000), wk =   0.0066445
        k(  248) = (  -0.0300000  -0.4850000  -0.5150000), wk =   0.0066445
        k(  249) = (  -0.0200000  -0.4900000  -0.5100000), wk =   0.0066445
        k(  250) = (  -0.0100000  -0.4950000  -0.5050000), wk =   0.0066445
        k(  251) = (   0.0000000  -0.5000000  -0.5000000), wk =   0.0066445
        k(  252) = (   0.0000000  -0.4900000  -0.4900000), wk =   0.0066445
        k(  253) = (   0.0000000  -0.4800000  -0.4800000), wk =   0.0066445
        k(  254) = (   0.0000000  -0.4700000  -0.4700000), wk =   0.0066445
        k(  255) = (   0.0000000  -0.4600000  -0.4600000), wk =   0.0066445
        k(  256) = (   0.0000000  -0.4500000  -0.4500000), wk =   0.0066445
        k(  257) = (   0.0000000  -0.4400000  -0.4400000), wk =   0.0066445
        k(  258) = (   0.0000000  -0.4300000  -0.4300000), wk =   0.0066445
        k(  259) = (   0.0000000  -0.4200000  -0.4200000), wk =   0.0066445
        k(  260) = (   0.0000000  -0.4100000  -0.4100000), wk =   0.0066445
        k(  261) = (   0.0000000  -0.4000000  -0.4000000), wk =   0.0066445
        k(  262) = (   0.0000000  -0.3900000  -0.3900000), wk =   0.0066445
        k(  263) = (   0.0000000  -0.3800000  -0.3800000), wk =   0.0066445
        k(  264) = (   0.0000000  -0.3700000  -0.3700000), wk =   0.0066445
        k(  265) = (   0.0000000  -0.3600000  -0.3600000), wk =   0.0066445
        k(  266) = (   0.0000000  -0.3500000  -0.3500000), wk =   0.0066445
        k(  267) = (   0.0000000  -0.3400000  -0.3400000), wk =   0.0066445
        k(  268) = (   0.0000000  -0.3300000  -0.3300000), wk =   0.0066445
        k(  269) = (   0.0000000  -0.3200000  -0.3200000), wk =   0.0066445
        k(  270) = (   0.0000000  -0.3100000  -0.3100000), wk =   0.0066445
        k(  271) = (   0.0000000  -0.3000000  -0.3000000), wk =   0.0066445
        k(  272) = (   0.0000000  -0.2900000  -0.2900000), wk =   0.0066445
        k(  273) = (   0.0000000  -0.2800000  -0.2800000), wk =   0.0066445
        k(  274) = (   0.0000000  -0.2700000  -0.2700000), wk =   0.0066445
        k(  275) = (   0.0000000  -0.2600000  -0.2600000), wk =   0.0066445
        k(  276) = (   0.0000000  -0.2500000  -0.2500000), wk =   0.0066445
        k(  277) = (   0.0000000  -0.2400000  -0.2400000), wk =   0.0066445
        k(  278) = (   0.0000000  -0.2300000  -0.2300000), wk =   0.0066445
        k(  279) = (   0.0000000  -0.2200000  -0.2200000), wk =   0.0066445
        k(  280) = (   0.0000000  -0.2100000  -0.2100000), wk =   0.0066445
        k(  281) = (   0.0000000  -0.2000000  -0.2000000), wk =   0.0066445
        k(  282) = (   0.0000000  -0.1900000  -0.1900000), wk =   0.0066445
        k(  283) = (   0.0000000  -0.1800000  -0.1800000), wk =   0.0066445
        k(  284) = (   0.0000000  -0.1700000  -0.1700000), wk =   0.0066445
        k(  285) = (   0.0000000  -0.1600000  -0.1600000), wk =   0.0066445
        k(  286) = (   0.0000000  -0.1500000  -0.1500000), wk =   0.0066445
        k(  287) = (   0.0000000  -0.1400000  -0.1400000), wk =   0.0066445
        k(  288) = (   0.0000000  -0.1300000  -0.1300000), wk =   0.0066445
        k(  289) = (   0.0000000  -0.1200000  -0.1200000), wk =   0.0066445
        k(  290) = (   0.0000000  -0.1100000  -0.1100000), wk =   0.0066445
        k(  291) = (   0.0000000  -0.1000000  -0.1000000), wk =   0.0066445
        k(  292) = (   0.0000000  -0.0900000  -0.0900000), wk =   0.0066445
        k(  293) = (   0.0000000  -0.0800000  -0.0800000), wk =   0.0066445
        k(  294) = (   0.0000000  -0.0700000  -0.0700000), wk =   0.0066445
        k(  295) = (   0.0000000  -0.0600000  -0.0600000), wk =   0.0066445
        k(  296) = (   0.0000000  -0.0500000  -0.0500000), wk =   0.0066445
        k(  297) = (   0.0000000  -0.0400000  -0.0400000), wk =   0.0066445
        k(  298) = (   0.0000000  -0.0300000  -0.0300000), wk =   0.0066445
        k(  299) = (   0.0000000  -0.0200000  -0.0200000), wk =   0.0066445
        k(  300) = (   0.0000000  -0.0100000  -0.0100000), wk =   0.0066445
        k(  301) = (   0.0000000   0.0000000   0.0000000), wk =   0.0066445

     Dense  grid:    97349 G-vectors     FFT dimensions: (  72,  72,  72)

     Smooth grid:    85083 G-vectors     FFT dimensions: (  64,  64,  64)

     Dynamical RAM for                 wfc:       3.24 MB

     Dynamical RAM for     wfc (w. buffer):       3.24 MB

     Dynamical RAM for           str. fact:       2.97 MB

     Dynamical RAM for           local pot:       0.00 MB

     Dynamical RAM for          nlocal pot:       4.22 MB

     Dynamical RAM for                qrad:       4.24 MB

     Dynamical RAM for          rho,v,vnew:      13.00 MB

     Dynamical RAM for           G-vectors:       6.22 MB

     Dynamical RAM for          h,s,v(r/c):       0.07 MB

     Dynamical RAM for          <psi|beta>:       0.01 MB

     Dynamical RAM for                 psi:       6.49 MB

     Dynamical RAM for                hpsi:       6.49 MB

     Dynamical RAM for                spsi:       6.49 MB

     Dynamical RAM for      wfcinit/wfcrot:       6.50 MB

     Dynamical RAM for           addusdens:     277.78 MB

     Estimated static dynamical RAM per process >      52.59 MB

     Estimated max dynamical RAM per process >     330.37 MB

     The potential is recalculated from file :
     ./out/aiida.save/charge-density

     Starting wfcs are    9 randomized atomic wfcs +   11 random wfcs
     Checking if some PAW data can be deallocated... 

     Band Structure Calculation
     Davidson diagonalization with overlap

     Computing kpt #:     1  of   301
     total cpu time spent up to now is        5.0 secs

     Computing kpt #:     2  of   301
     total cpu time spent up to now is        7.6 secs

     Computing kpt #:     3  of   301
     total cpu time spent up to now is       10.2 secs

     Computing kpt #:     4  of   301
     total cpu time spent up to now is       12.7 secs

     Computing kpt #:     5  of   301
     total cpu time spent up to now is       15.3 secs

     Computing kpt #:     6  of   301
     total cpu time spent up to now is       17.7 secs

     Computing kpt #:     7  of   301
     total cpu time spent up to now is       20.3 secs

     Computing kpt #:     8  of   301
     total cpu time spent up to now is       22.8 secs

     Computing kpt #:     9  of   301
     total cpu time spent up to now is       25.5 secs

     Computing kpt #:    10  of   301
     total cpu time spent up to now is       28.1 secs

     Computing kpt #:    11  of   301
     total cpu time spent up to now is       30.7 secs

     Computing kpt #:    12  of   301
     total cpu time spent up to now is       33.3 secs

     Computing kpt #:    13  of   301
     total cpu time spent up to now is       35.9 secs

     Computing kpt #:    14  of   301
     total cpu time spent up to now is       38.5 secs

     Computing kpt #:    15  of   301
     total cpu time spent up to now is       41.2 secs

     Computing kpt #:    16  of   301
     total cpu time spent up to now is       43.7 secs

     Computing kpt #:    17  of   301
     total cpu time spent up to now is       46.2 secs

     Computing kpt #:    18  of   301
     total cpu time spent up to now is       48.6 secs

     Computing kpt #:    19  of   301
     total cpu time spent up to now is       51.1 secs

     Computing kpt #:    20  of   301
     total cpu time spent up to now is       53.7 secs

     Computing kpt #:    21  of   301
     total cpu time spent up to now is       56.2 secs

     Computing kpt #:    22  of   301
     total cpu time spent up to now is       58.6 secs

     Computing kpt #:    23  of   301
     total cpu time spent up to now is       61.2 secs

     Computing kpt #:    24  of   301
     total cpu time spent up to now is       63.6 secs

     Computing kpt #:    25  of   301
     total cpu time spent up to now is       66.2 secs

     Computing kpt #:    26  of   301
     total cpu time spent up to now is       68.7 secs

     Computing kpt #:    27  of   301
     total cpu time spent up to now is       71.4 secs

     Computing kpt #:    28  of   301
     total cpu time spent up to now is       74.0 secs

     Computing kpt #:    29  of   301
     total cpu time spent up to now is       76.7 secs

     Computing kpt #:    30  of   301
     total cpu time spent up to now is       79.2 secs

     Computing kpt #:    31  of   301
     total cpu time spent up to now is       81.8 secs

     Computing kpt #:    32  of   301
     total cpu time spent up to now is       84.5 secs

     Computing kpt #:    33  of   301
     total cpu time spent up to now is       87.1 secs

     Computing kpt #:    34  of   301
     total cpu time spent up to now is       89.7 secs

     Computing kpt #:    35  of   301
     total cpu time spent up to now is       92.3 secs

     Computing kpt #:    36  of   301
     total cpu time spent up to now is       95.0 secs

     Computing kpt #:    37  of   301
     total cpu time spent up to now is       97.8 secs

     Computing kpt #:    38  of   301
     total cpu time spent up to now is      100.5 secs

     Computing kpt #:    39  of   301
     total cpu time spent up to now is      103.1 secs

     Computing kpt #:    40  of   301
     total cpu time spent up to now is      105.8 secs

     Computing kpt #:    41  of   301
     total cpu time spent up to now is      108.5 secs

     Computing kpt #:    42  of   301
     total cpu time spent up to now is      111.2 secs

     Computing kpt #:    43  of   301
     total cpu time spent up to now is      114.1 secs

     Computing kpt #:    44  of   301
     total cpu time spent up to now is      116.9 secs

     Computing kpt #:    45  of   301
     total cpu time spent up to now is      119.6 secs

     Computing kpt #:    46  of   301
     total cpu time spent up to now is      122.6 secs

     Computing kpt #:    47  of   301
     total cpu time spent up to now is      125.2 secs

     Computing kpt #:    48  of   301
     total cpu time spent up to now is      127.9 secs

     Computing kpt #:    49  of   301
     total cpu time spent up to now is      130.7 secs

     Computing kpt #:    50  of   301
     total cpu time spent up to now is      133.6 secs

     Computing kpt #:    51  of   301
     total cpu time spent up to now is      136.3 secs

     Computing kpt #:    52  of   301
     total cpu time spent up to now is      139.0 secs

     Computing kpt #:    53  of   301
     total cpu time spent up to now is      141.8 secs

     Computing kpt #:    54  of   301
     total cpu time spent up to now is      144.6 secs

     Computing kpt #:    55  of   301
     total cpu time spent up to now is      147.3 secs

     Computing kpt #:    56  of   301
     total cpu time spent up to now is      149.9 secs

     Computing kpt #:    57  of   301
     total cpu time spent up to now is      152.6 secs

     Computing kpt #:    58  of   301
     total cpu time spent up to now is      155.2 secs

     Computing kpt #:    59  of   301
     total cpu time spent up to now is      157.6 secs

     Computing kpt #:    60  of   301
     total cpu time spent up to now is      160.3 secs

     Computing kpt #:    61  of   301
     total cpu time spent up to now is      163.1 secs

     Computing kpt #:    62  of   301
     total cpu time spent up to now is      165.9 secs

     Computing kpt #:    63  of   301
     total cpu time spent up to now is      168.6 secs

     Computing kpt #:    64  of   301
     total cpu time spent up to now is      171.3 secs

     Computing kpt #:    65  of   301
     total cpu time spent up to now is      173.9 secs

     Computing kpt #:    66  of   301
     total cpu time spent up to now is      176.7 secs

     Computing kpt #:    67  of   301
     total cpu time spent up to now is      179.5 secs

     Computing kpt #:    68  of   301
     total cpu time spent up to now is      182.2 secs

     Computing kpt #:    69  of   301
     total cpu time spent up to now is      185.2 secs

     Computing kpt #:    70  of   301
     total cpu time spent up to now is      188.2 secs

     Computing kpt #:    71  of   301
     total cpu time spent up to now is      191.3 secs

     Computing kpt #:    72  of   301
     total cpu time spent up to now is      194.0 secs

     Computing kpt #:    73  of   301
     total cpu time spent up to now is      196.9 secs

     Computing kpt #:    74  of   301
     total cpu time spent up to now is      199.6 secs

     Computing kpt #:    75  of   301
     total cpu time spent up to now is      202.3 secs

     Computing kpt #:    76  of   301
     total cpu time spent up to now is      205.1 secs

     Computing kpt #:    77  of   301
     total cpu time spent up to now is      207.9 secs

     Computing kpt #:    78  of   301
     total cpu time spent up to now is      210.6 secs

     Computing kpt #:    79  of   301
     total cpu time spent up to now is      213.4 secs

     Computing kpt #:    80  of   301
     total cpu time spent up to now is      216.1 secs

     Computing kpt #:    81  of   301
     total cpu time spent up to now is      218.8 secs

     Computing kpt #:    82  of   301
     total cpu time spent up to now is      221.5 secs

     Computing kpt #:    83  of   301
     total cpu time spent up to now is      224.2 secs

     Computing kpt #:    84  of   301
     total cpu time spent up to now is      226.9 secs

     Computing kpt #:    85  of   301
     total cpu time spent up to now is      229.6 secs

     Computing kpt #:    86  of   301
     total cpu time spent up to now is      232.2 secs

     Computing kpt #:    87  of   301
     total cpu time spent up to now is      234.9 secs

     Computing kpt #:    88  of   301
     total cpu time spent up to now is      237.5 secs

     Computing kpt #:    89  of   301
     total cpu time spent up to now is      240.3 secs

     Computing kpt #:    90  of   301
     total cpu time spent up to now is      243.1 secs

     Computing kpt #:    91  of   301
     total cpu time spent up to now is      246.1 secs

     Computing kpt #:    92  of   301
     total cpu time spent up to now is      248.9 secs

     Computing kpt #:    93  of   301
     total cpu time spent up to now is      251.7 secs

     Computing kpt #:    94  of   301
     total cpu time spent up to now is      254.5 secs

     Computing kpt #:    95  of   301
     total cpu time spent up to now is      257.3 secs

     Computing kpt #:    96  of   301
     total cpu time spent up to now is      260.1 secs

     Computing kpt #:    97  of   301
     total cpu time spent up to now is      262.8 secs

     Computing kpt #:    98  of   301
     total cpu time spent up to now is      265.6 secs

     Computing kpt #:    99  of   301
     total cpu time spent up to now is      268.5 secs

     Computing kpt #:   100  of   301
     total cpu time spent up to now is      271.5 secs

     Computing kpt #:   101  of   301
     total cpu time spent up to now is      273.8 secs

     Computing kpt #:   102  of   301
     total cpu time spent up to now is      276.7 secs

     Computing kpt #:   103  of   301
     total cpu time spent up to now is      279.5 secs

     Computing kpt #:   104  of   301
     total cpu time spent up to now is      282.5 secs

     Computing kpt #:   105  of   301
     total cpu time spent up to now is      285.5 secs

     Computing kpt #:   106  of   301
     total cpu time spent up to now is      288.5 secs

     Computing kpt #:   107  of   301
     total cpu time spent up to now is      291.5 secs

     Computing kpt #:   108  of   301
     total cpu time spent up to now is      294.4 secs

     Computing kpt #:   109  of   301
     total cpu time spent up to now is      297.4 secs

     Computing kpt #:   110  of   301
     total cpu time spent up to now is      300.6 secs

     Computing kpt #:   111  of   301
     total cpu time spent up to now is      303.8 secs

     Computing kpt #:   112  of   301
     total cpu time spent up to now is      306.9 secs

     Computing kpt #:   113  of   301
     total cpu time spent up to now is      309.9 secs

     Computing kpt #:   114  of   301
     total cpu time spent up to now is      312.8 secs

     Computing kpt #:   115  of   301
     total cpu time spent up to now is      315.8 secs

     Computing kpt #:   116  of   301
     total cpu time spent up to now is      318.8 secs

     Computing kpt #:   117  of   301
     total cpu time spent up to now is      321.8 secs

     Computing kpt #:   118  of   301
     total cpu time spent up to now is      324.7 secs

     Computing kpt #:   119  of   301
     total cpu time spent up to now is      327.7 secs

     Computing kpt #:   120  of   301
     total cpu time spent up to now is      330.6 secs

     Computing kpt #:   121  of   301
     total cpu time spent up to now is      333.6 secs

     Computing kpt #:   122  of   301
     total cpu time spent up to now is      336.7 secs

     Computing kpt #:   123  of   301
     total cpu time spent up to now is      339.6 secs

     Computing kpt #:   124  of   301
     total cpu time spent up to now is      342.6 secs

     Computing kpt #:   125  of   301
     total cpu time spent up to now is      345.6 secs

     Computing kpt #:   126  of   301
     total cpu time spent up to now is      348.6 secs

     Computing kpt #:   127  of   301
     total cpu time spent up to now is      351.7 secs

     Computing kpt #:   128  of   301
     total cpu time spent up to now is      354.8 secs

     Computing kpt #:   129  of   301
     total cpu time spent up to now is      358.0 secs

     Computing kpt #:   130  of   301
     total cpu time spent up to now is      361.2 secs

     Computing kpt #:   131  of   301
     total cpu time spent up to now is      364.3 secs

     Computing kpt #:   132  of   301
     total cpu time spent up to now is      367.5 secs

     Computing kpt #:   133  of   301
     total cpu time spent up to now is      370.8 secs

     Computing kpt #:   134  of   301
     total cpu time spent up to now is      373.8 secs

     Computing kpt #:   135  of   301
     total cpu time spent up to now is      377.1 secs

     Computing kpt #:   136  of   301
     total cpu time spent up to now is      380.1 secs

     Computing kpt #:   137  of   301
     total cpu time spent up to now is      383.6 secs

     Computing kpt #:   138  of   301
     total cpu time spent up to now is      386.6 secs

     Computing kpt #:   139  of   301
     total cpu time spent up to now is      389.5 secs

     Computing kpt #:   140  of   301
     total cpu time spent up to now is      392.5 secs

     Computing kpt #:   141  of   301
     total cpu time spent up to now is      395.5 secs

     Computing kpt #:   142  of   301
     total cpu time spent up to now is      398.5 secs

     Computing kpt #:   143  of   301
     total cpu time spent up to now is      401.8 secs

     Computing kpt #:   144  of   301
     total cpu time spent up to now is      405.0 secs

     Computing kpt #:   145  of   301
     total cpu time spent up to now is      408.4 secs

     Computing kpt #:   146  of   301
     total cpu time spent up to now is      411.8 secs

     Computing kpt #:   147  of   301
     total cpu time spent up to now is      415.1 secs

     Computing kpt #:   148  of   301
     total cpu time spent up to now is      418.3 secs

     Computing kpt #:   149  of   301
     total cpu time spent up to now is      421.4 secs

     Computing kpt #:   150  of   301
     total cpu time spent up to now is      424.5 secs

     Computing kpt #:   151  of   301
     total cpu time spent up to now is      427.3 secs

     Computing kpt #:   152  of   301
     total cpu time spent up to now is      430.5 secs

     Computing kpt #:   153  of   301
     total cpu time spent up to now is      433.8 secs

     Computing kpt #:   154  of   301
     total cpu time spent up to now is      437.1 secs

     Computing kpt #:   155  of   301
     total cpu time spent up to now is      440.2 secs

     Computing kpt #:   156  of   301
     total cpu time spent up to now is      443.7 secs

     Computing kpt #:   157  of   301
     total cpu time spent up to now is      447.1 secs

     Computing kpt #:   158  of   301
     total cpu time spent up to now is      450.4 secs

     Computing kpt #:   159  of   301
     total cpu time spent up to now is      453.8 secs

     Computing kpt #:   160  of   301
     total cpu time spent up to now is      457.7 secs

     Computing kpt #:   161  of   301
     total cpu time spent up to now is      461.3 secs

     Computing kpt #:   162  of   301
     total cpu time spent up to now is      465.3 secs

     Computing kpt #:   163  of   301
     total cpu time spent up to now is      469.1 secs

     Computing kpt #:   164  of   301
     total cpu time spent up to now is      472.3 secs

     Computing kpt #:   165  of   301
     total cpu time spent up to now is      475.7 secs

     Computing kpt #:   166  of   301
     total cpu time spent up to now is      478.8 secs

     Computing kpt #:   167  of   301
     total cpu time spent up to now is      482.0 secs

     Computing kpt #:   168  of   301
     total cpu time spent up to now is      485.2 secs

     Computing kpt #:   169  of   301
     total cpu time spent up to now is      488.4 secs

     Computing kpt #:   170  of   301
     total cpu time spent up to now is      491.9 secs

     Computing kpt #:   171  of   301
     total cpu time spent up to now is      495.4 secs

     Computing kpt #:   172  of   301
     total cpu time spent up to now is      498.8 secs

     Computing kpt #:   173  of   301
     total cpu time spent up to now is      502.0 secs

     Computing kpt #:   174  of   301
     total cpu time spent up to now is      505.5 secs

     Computing kpt #:   175  of   301
     total cpu time spent up to now is      508.8 secs

     Computing kpt #:   176  of   301
     total cpu time spent up to now is      512.0 secs

     Computing kpt #:   177  of   301
     total cpu time spent up to now is      515.4 secs

     Computing kpt #:   178  of   301
     total cpu time spent up to now is      518.9 secs

     Computing kpt #:   179  of   301
     total cpu time spent up to now is      521.9 secs

     Computing kpt #:   180  of   301
     total cpu time spent up to now is      525.3 secs

     Computing kpt #:   181  of   301
     total cpu time spent up to now is      528.7 secs

     Computing kpt #:   182  of   301
     total cpu time spent up to now is      531.9 secs

     Computing kpt #:   183  of   301
     total cpu time spent up to now is      534.8 secs

     Computing kpt #:   184  of   301
     total cpu time spent up to now is      538.1 secs

     Computing kpt #:   185  of   301
     total cpu time spent up to now is      541.2 secs

     Computing kpt #:   186  of   301
     total cpu time spent up to now is      544.0 secs

     Computing kpt #:   187  of   301
     total cpu time spent up to now is      546.8 secs

     Computing kpt #:   188  of   301
     total cpu time spent up to now is      549.5 secs

     Computing kpt #:   189  of   301
     total cpu time spent up to now is      552.3 secs

     Computing kpt #:   190  of   301
     total cpu time spent up to now is      555.1 secs

     Computing kpt #:   191  of   301
     total cpu time spent up to now is      558.0 secs

     Computing kpt #:   192  of   301
     total cpu time spent up to now is      560.7 secs

     Computing kpt #:   193  of   301
     total cpu time spent up to now is      563.6 secs

     Computing kpt #:   194  of   301
     total cpu time spent up to now is      566.3 secs

     Computing kpt #:   195  of   301
     total cpu time spent up to now is      568.9 secs

     Computing kpt #:   196  of   301
     total cpu time spent up to now is      571.5 secs

     Computing kpt #:   197  of   301
     total cpu time spent up to now is      574.2 secs

     Computing kpt #:   198  of   301
     total cpu time spent up to now is      576.7 secs

     Computing kpt #:   199  of   301
     total cpu time spent up to now is      579.1 secs

     Computing kpt #:   200  of   301
     total cpu time spent up to now is      581.7 secs

     Computing kpt #:   201  of   301
     total cpu time spent up to now is      584.1 secs

     Computing kpt #:   202  of   301
     total cpu time spent up to now is      586.4 secs

     Computing kpt #:   203  of   301
     total cpu time spent up to now is      589.1 secs

     Computing kpt #:   204  of   301
     total cpu time spent up to now is      591.7 secs

     Computing kpt #:   205  of   301
     total cpu time spent up to now is      594.3 secs

     Computing kpt #:   206  of   301
     total cpu time spent up to now is      597.0 secs

     Computing kpt #:   207  of   301
     total cpu time spent up to now is      599.7 secs

     Computing kpt #:   208  of   301
     total cpu time spent up to now is      602.4 secs

     Computing kpt #:   209  of   301
     total cpu time spent up to now is      605.2 secs

     Computing kpt #:   210  of   301
     total cpu time spent up to now is      608.0 secs

     Computing kpt #:   211  of   301
     total cpu time spent up to now is      610.9 secs

     Computing kpt #:   212  of   301
     total cpu time spent up to now is      613.7 secs

     Computing kpt #:   213  of   301
     total cpu time spent up to now is      616.5 secs

     Computing kpt #:   214  of   301
     total cpu time spent up to now is      619.1 secs

     Computing kpt #:   215  of   301
     total cpu time spent up to now is      621.9 secs

     Computing kpt #:   216  of   301
     total cpu time spent up to now is      624.7 secs

     Computing kpt #:   217  of   301
     total cpu time spent up to now is      627.6 secs

     Computing kpt #:   218  of   301
     total cpu time spent up to now is      630.4 secs

     Computing kpt #:   219  of   301
     total cpu time spent up to now is      633.1 secs

     Computing kpt #:   220  of   301
     total cpu time spent up to now is      635.7 secs

     Computing kpt #:   221  of   301
     total cpu time spent up to now is      638.5 secs

     Computing kpt #:   222  of   301
     total cpu time spent up to now is      641.2 secs

     Computing kpt #:   223  of   301
     total cpu time spent up to now is      643.7 secs

     Computing kpt #:   224  of   301
     total cpu time spent up to now is      646.2 secs

     Computing kpt #:   225  of   301
     total cpu time spent up to now is      648.9 secs

     Computing kpt #:   226  of   301
     total cpu time spent up to now is      651.5 secs

     Computing kpt #:   227  of   301
     total cpu time spent up to now is      654.2 secs

     Computing kpt #:   228  of   301
     total cpu time spent up to now is      656.8 secs

     Computing kpt #:   229  of   301
     total cpu time spent up to now is      659.5 secs

     Computing kpt #:   230  of   301
     total cpu time spent up to now is      662.1 secs

     Computing kpt #:   231  of   301
     total cpu time spent up to now is      664.9 secs

     Computing kpt #:   232  of   301
     total cpu time spent up to now is      667.6 secs

     Computing kpt #:   233  of   301
     total cpu time spent up to now is      670.5 secs

     Computing kpt #:   234  of   301
     total cpu time spent up to now is      673.3 secs

     Computing kpt #:   235  of   301
     total cpu time spent up to now is      676.5 secs

     Computing kpt #:   236  of   301
     total cpu time spent up to now is      679.4 secs

     Computing kpt #:   237  of   301
     total cpu time spent up to now is      682.5 secs

     Computing kpt #:   238  of   301
     total cpu time spent up to now is      685.6 secs

     Computing kpt #:   239  of   301
     total cpu time spent up to now is      688.7 secs

     Computing kpt #:   240  of   301
     total cpu time spent up to now is      692.0 secs

     Computing kpt #:   241  of   301
     total cpu time spent up to now is      695.2 secs

     Computing kpt #:   242  of   301
     total cpu time spent up to now is      698.4 secs

     Computing kpt #:   243  of   301
     total cpu time spent up to now is      701.7 secs

     Computing kpt #:   244  of   301
     total cpu time spent up to now is      705.0 secs

     Computing kpt #:   245  of   301
     total cpu time spent up to now is      708.3 secs

     Computing kpt #:   246  of   301
     total cpu time spent up to now is      711.7 secs

     Computing kpt #:   247  of   301
     total cpu time spent up to now is      715.3 secs

     Computing kpt #:   248  of   301
     total cpu time spent up to now is      718.6 secs

     Computing kpt #:   249  of   301
     total cpu time spent up to now is      721.9 secs

     Computing kpt #:   250  of   301
     total cpu time spent up to now is      725.3 secs

     Computing kpt #:   251  of   301
     total cpu time spent up to now is      728.4 secs

     Computing kpt #:   252  of   301
     total cpu time spent up to now is      731.3 secs

     Computing kpt #:   253  of   301
     total cpu time spent up to now is      734.4 secs

     Computing kpt #:   254  of   301
     total cpu time spent up to now is      737.5 secs

     Computing kpt #:   255  of   301
     total cpu time spent up to now is      740.7 secs

     Computing kpt #:   256  of   301
     total cpu time spent up to now is      743.9 secs

     Computing kpt #:   257  of   301
     total cpu time spent up to now is      747.2 secs

     Computing kpt #:   258  of   301
     total cpu time spent up to now is      750.4 secs

     Computing kpt #:   259  of   301
     c_bands:  1 eigenvalues not converged
     total cpu time spent up to now is      754.1 secs

     Computing kpt #:   260  of   301
     total cpu time spent up to now is      757.0 secs

     Computing kpt #:   261  of   301
     total cpu time spent up to now is      760.1 secs

     Computing kpt #:   262  of   301
     total cpu time spent up to now is      763.1 secs

     Computing kpt #:   263  of   301
     total cpu time spent up to now is      766.1 secs

     Computing kpt #:   264  of   301
     total cpu time spent up to now is      769.2 secs

     Computing kpt #:   265  of   301
     total cpu time spent up to now is      772.3 secs

     Computing kpt #:   266  of   301
     total cpu time spent up to now is      775.5 secs

     Computing kpt #:   267  of   301
     total cpu time spent up to now is      778.6 secs

     Computing kpt #:   268  of   301
     total cpu time spent up to now is      781.8 secs

     Computing kpt #:   269  of   301
     total cpu time spent up to now is      785.0 secs

     Computing kpt #:   270  of   301
     total cpu time spent up to now is      788.1 secs

     Computing kpt #:   271  of   301
     total cpu time spent up to now is      791.3 secs

     Computing kpt #:   272  of   301
     total cpu time spent up to now is      794.5 secs

     Computing kpt #:   273  of   301
     total cpu time spent up to now is      797.6 secs

     Computing kpt #:   274  of   301
     total cpu time spent up to now is      800.8 secs

     Computing kpt #:   275  of   301
     total cpu time spent up to now is      803.7 secs

     Computing kpt #:   276  of   301
     total cpu time spent up to now is      806.5 secs

     Computing kpt #:   277  of   301
     total cpu time spent up to now is      809.4 secs

     Computing kpt #:   278  of   301
     total cpu time spent up to now is      812.1 secs

     Computing kpt #:   279  of   301
     total cpu time spent up to now is      815.1 secs

     Computing kpt #:   280  of   301
     total cpu time spent up to now is      818.0 secs

     Computing kpt #:   281  of   301
     total cpu time spent up to now is      821.1 secs

     Computing kpt #:   282  of   301
     total cpu time spent up to now is      824.0 secs

     Computing kpt #:   283  of   301
     total cpu time spent up to now is      827.0 secs

     Computing kpt #:   284  of   301
     total cpu time spent up to now is      829.9 secs

     Computing kpt #:   285  of   301
     total cpu time spent up to now is      832.8 secs

     Computing kpt #:   286  of   301
     total cpu time spent up to now is      835.8 secs

     Computing kpt #:   287  of   301
     total cpu time spent up to now is      838.8 secs

     Computing kpt #:   288  of   301
     total cpu time spent up to now is      841.8 secs

     Computing kpt #:   289  of   301
     total cpu time spent up to now is      844.9 secs

     Computing kpt #:   290  of   301
     total cpu time spent up to now is      847.8 secs

     Computing kpt #:   291  of   301
     total cpu time spent up to now is      851.0 secs

     Computing kpt #:   292  of   301
     total cpu time spent up to now is      854.4 secs

     Computing kpt #:   293  of   301
     total cpu time spent up to now is      857.2 secs

     Computing kpt #:   294  of   301
     total cpu time spent up to now is      860.1 secs

     Computing kpt #:   295  of   301
     total cpu time spent up to now is      862.9 secs

     Computing kpt #:   296  of   301
     total cpu time spent up to now is      865.7 secs

     Computing kpt #:   297  of   301
     total cpu time spent up to now is      868.5 secs

     Computing kpt #:   298  of   301
     total cpu time spent up to now is      871.4 secs

     Computing kpt #:   299  of   301
     total cpu time spent up to now is      874.3 secs

     Computing kpt #:   300  of   301
     total cpu time spent up to now is      877.2 secs

     Computing kpt #:   301  of   301
     total cpu time spent up to now is      879.4 secs

     ethr =  2.50E-12,  avg # of iterations = 62.4

     total cpu time spent up to now is      879.4 secs

     End of band structure calculation

          k =-0.3536-0.7071 0.0000 ( 10640 PWs)   bands (ev):

   -47.9543 -20.0478 -20.0478 -20.0441 -11.4900  -0.4496  -0.4496  -0.0212
     9.3218  10.1413  10.1413  11.7736  16.0255  16.0255  16.5301  17.2055
    19.6578  22.0357  22.0357  23.0420

          k =-0.3536-0.7000 0.0071 ( 10650 PWs)   bands (ev):

   -47.9543 -20.0478 -20.0478 -20.0441 -11.4901  -0.4513  -0.4489  -0.0197
     9.3229  10.1371  10.1423  11.7775  15.9968  16.0252  16.5520  17.2141
    19.6572  22.0188  22.0354  23.0393

          k =-0.3536-0.6930 0.0141 ( 10666 PWs)   bands (ev):

   -47.9543 -20.0479 -20.0477 -20.0440 -11.4903  -0.4563  -0.4466  -0.0155
     9.3264  10.1244  10.1454  11.7890  15.9236  16.0241  16.6040  17.2410
    19.6551  21.9694  22.0343  23.0310

          k =-0.3536-0.6859 0.0212 ( 10662 PWs)   bands (ev):

   -47.9543 -20.0481 -20.0477 -20.0438 -11.4906  -0.4643  -0.4427  -0.0086
     9.3322  10.1037  10.1504  11.8078  15.8264  16.0224  16.6637  17.2879
    19.6516  21.8910  22.0326  23.0169

          k =-0.3536-0.6788 0.0283 ( 10658 PWs)   bands (ev):

   -47.9543 -20.0484 -20.0476 -20.0437 -11.4910  -0.4752  -0.4374   0.0006
     9.3403  10.0755  10.1575  11.8330  15.7180  16.0200  16.7173  17.3559
    19.6465  21.7883  22.0302  22.9969

          k =-0.3536-0.6718 0.0354 ( 10656 PWs)   bands (ev):

   -47.9543 -20.0486 -20.0475 -20.0434 -11.4916  -0.4884  -0.4305   0.0118
     9.3507  10.0407  10.1665  11.8638  15.6049  16.0171  16.7595  17.4439
    19.6398  21.6659  22.0272  22.9717

          k =-0.3536-0.6647 0.0424 ( 10654 PWs)   bands (ev):

   -47.9543 -20.0489 -20.0474 -20.0432 -11.4923  -0.5037  -0.4222   0.0246
     9.3635   9.9999  10.1775  11.8992  15.4908  16.0135  16.7903  17.5483
    19.6311  21.5282  22.0235  22.9422

          k =-0.3536-0.6576 0.0495 ( 10654 PWs)   bands (ev):

   -47.9543 -20.0493 -20.0473 -20.0429 -11.4930  -0.5207  -0.4124   0.0386
     9.3785   9.9539  10.1904  11.9383  15.3778  16.0094  16.8119  17.6649
    19.6204  21.3787  22.0192  22.9097

          k =-0.3536-0.6505 0.0566 ( 10652 PWs)   bands (ev):

   -47.9544 -20.0496 -20.0471 -20.0427 -11.4940  -0.5391  -0.4011   0.0536
     9.3959   9.9034  10.2051  11.9798  15.2675  16.0048  16.8268  17.7897
    19.6072  21.2202  22.0144  22.8756

          k =-0.3536-0.6435 0.0636 ( 10646 PWs)   bands (ev):

   -47.9544 -20.0500 -20.0469 -20.0424 -11.4950  -0.5587  -0.3885   0.0693
     9.4155   9.8492  10.2217  12.0229  15.1611  15.9998  16.8369  17.9199
    19.5914  21.0551  22.0091  22.8411

          k =-0.3536-0.6364 0.0707 ( 10636 PWs)   bands (ev):

   -47.9544 -20.0504 -20.0467 -20.0422 -11.4961  -0.5791  -0.3744   0.0855
     9.4374   9.7918  10.2400  12.0663  15.0598  15.9944  16.8436  18.0530
    19.5727  20.8853  22.0034  22.8074

          k =-0.3536-0.6293 0.0778 ( 10638 PWs)   bands (ev):

   -47.9544 -20.0508 -20.0465 -20.0419 -11.4973  -0.6002  -0.3591   0.1021
     9.4617   9.7316  10.2600  12.1090  14.9645  15.9888  16.8479  18.1874
    19.5505  20.7122  21.9976  22.7755

          k =-0.3536-0.6223 0.0849 ( 10636 PWs)   bands (ev):

   -47.9544 -20.0511 -20.0463 -20.0416 -11.4986  -0.6219  -0.3424   0.1187
     9.4881   9.6693  10.2817  12.1499  14.8763  15.9829  16.8504  18.3216
    19.5246  20.5371  21.9918  22.7463

          k =-0.3536-0.6152 0.0919 ( 10636 PWs)   bands (ev):

   -47.9544 -20.0515 -20.0461 -20.0414 -11.5000  -0.6439  -0.3244   0.1354
     9.5168   9.6051  10.3049  12.1880  14.7962  15.9770  16.8516  18.4545
    19.4943  20.3614  21.9862  22.7204

          k =-0.3536-0.6081 0.0990 ( 10636 PWs)   bands (ev):

   -47.9544 -20.0519 -20.0458 -20.0411 -11.5015  -0.6662  -0.3053   0.1521
     9.5393   9.5477  10.3296  12.2222  14.7251  15.9710  16.8518  18.5849
    19.4589  20.1863  21.9813  22.6984

          k =-0.3536-0.6010 0.1061 ( 10632 PWs)   bands (ev):

   -47.9544 -20.0523 -20.0455 -20.0409 -11.5031  -0.6886  -0.2850   0.1685
     9.4724   9.5808  10.3557  12.2513  14.6642  15.9650  16.8513  18.7118
    19.4171  20.0136  21.9773  22.6807

          k =-0.3536-0.5940 0.1131 ( 10634 PWs)   bands (ev):

   -47.9544 -20.0527 -20.0452 -20.0407 -11.5047  -0.7111  -0.2635   0.1848
     9.4044   9.6161  10.3831  12.2745  14.6142  15.9592  16.8502  18.8341
    19.3668  19.8458  21.9749  22.6678

          k =-0.3536-0.5869 0.1202 ( 10634 PWs)   bands (ev):

   -47.9544 -20.0531 -20.0450 -20.0404 -11.5064  -0.7336  -0.2411   0.2007
     9.3357   9.6535  10.4117  12.2909  14.5760  15.9535  16.8486  18.9507
    19.3039  19.6874  21.9746  22.6598

          k =-0.3536-0.5798 0.1273 ( 10628 PWs)   bands (ev):

   -47.9544 -20.0535 -20.0446 -20.0402 -11.5082  -0.7559  -0.2177   0.2163
     9.2664   9.6929  10.4415  12.2999  14.5502  15.9482  16.8467  19.0606
    19.2213  19.5460  21.9771  22.6569

          k =-0.3536-0.5728 0.1344 ( 10628 PWs)   bands (ev):

   -47.9544 -20.0539 -20.0443 -20.0400 -11.5100  -0.7781  -0.1934   0.2315
     9.1968   9.7343  10.4724  12.3012  14.5371  15.9432  16.8445  19.1116
    19.1625  19.4291  21.9833  22.6592

          k =-0.3536-0.5657 0.1414 ( 10632 PWs)   bands (ev):

   -47.9544 -20.0543 -20.0440 -20.0398 -11.5118  -0.8000  -0.1682   0.2463
     9.1269   9.7777  10.5042  12.2947  14.5366  15.9386  16.8422  18.9761
    19.2553  19.3360  21.9939  22.6666

          k =-0.3536-0.5586 0.1485 ( 10630 PWs)   bands (ev):

   -47.9544 -20.0547 -20.0437 -20.0396 -11.5137  -0.8217  -0.1423   0.2606
     9.0570   9.8229  10.5369  12.2807  14.5484  15.9345  16.8398  18.8244
    19.2577  19.3378  22.0098  22.6791

          k =-0.3536-0.5515 0.1556 ( 10638 PWs)   bands (ev):

   -47.9544 -20.0551 -20.0433 -20.0394 -11.5157  -0.8430  -0.1157   0.2745
     8.9873   9.8699  10.5703  12.2599  14.5720  15.9310  16.8374  18.6648
    19.1861  19.4088  22.0319  22.6966

          k =-0.3536-0.5445 0.1626 ( 10642 PWs)   bands (ev):

   -47.9544 -20.0555 -20.0430 -20.0392 -11.5176  -0.8639  -0.0886   0.2879
     8.9178   9.9186  10.6045  12.2329  14.6064  15.9281  16.8350  18.5020
    19.1170  19.4675  22.0609  22.7189

          k =-0.3536-0.5374 0.1697 ( 10640 PWs)   bands (ev):

   -47.9544 -20.0559 -20.0427 -20.0390 -11.5195  -0.8844  -0.0610   0.3008
     8.8488   9.9689  10.6392  12.2007  14.6508  15.9258  16.8328  18.3388
    19.0484  19.5131  22.0974  22.7459

          k =-0.3536-0.5303 0.1768 ( 10616 PWs)   bands (ev):

   -47.9544 -20.0562 -20.0423 -20.0389 -11.5215  -0.9044  -0.0330   0.3131
     8.7803  10.0205  10.6744  12.1643  14.7040  15.9242  16.8308  18.1764
    18.9793  19.5450  22.1418  22.7772

          k =-0.3536-0.5233 0.1838 ( 10634 PWs)   bands (ev):

   -47.9545 -20.0566 -20.0420 -20.0387 -11.5235  -0.9239  -0.0047   0.3250
     8.7126  10.0735  10.7100  12.1247  14.7651  15.9232  16.8290  18.0159
    18.9093  19.5632  22.1940  22.8126

          k =-0.3536-0.5162 0.1909 ( 10636 PWs)   bands (ev):

   -47.9545 -20.0569 -20.0416 -20.0385 -11.5254  -0.9429   0.0238   0.3363
     8.6458  10.1276  10.7460  12.0827  14.8330  15.9228  16.8276  17.8579
    18.8385  19.5678  22.2540  22.8520

          k =-0.3536-0.5091 0.1980 ( 10638 PWs)   bands (ev):

   -47.9545 -20.0573 -20.0413 -20.0384 -11.5273  -0.9613   0.0524   0.3471
     8.5800  10.1826  10.7822  12.0390  14.9069  15.9230  16.8267  17.7029
    18.7669  19.5592  22.3211  22.8950

          k =-0.3536-0.5020 0.2051 ( 10636 PWs)   bands (ev):

   -47.9545 -20.0576 -20.0410 -20.0382 -11.5292  -0.9790   0.0809   0.3573
     8.5155  10.2383  10.8186  11.9946  14.9859  15.9235  16.8263  17.5516
    18.6946  19.5382  22.3947  22.9414

          k =-0.3536-0.4950 0.2121 ( 10642 PWs)   bands (ev):

   -47.9545 -20.0579 -20.0406 -20.0381 -11.5311  -0.9962   0.1092   0.3670
     8.4524  10.2944  10.8551  11.9499  15.0691  15.9242  16.8266  17.4045
    18.6218  19.5056  22.4741  22.9909

          k =-0.3536-0.4879 0.2192 ( 10624 PWs)   bands (ev):

   -47.9545 -20.0582 -20.0403 -20.0380 -11.5329  -1.0126   0.1373   0.3763
     8.3908  10.3507  10.8916  11.9055  15.1560  15.9248  16.8277  17.2622
    18.5489  19.4623  22.5584  23.0432

          k =-0.3536-0.4808 0.2263 ( 10616 PWs)   bands (ev):

   -47.9545 -20.0585 -20.0400 -20.0379 -11.5347  -1.0284   0.1649   0.3849
     8.3309  10.4069  10.9282  11.8619  15.2457  15.9249  16.8299  17.1255
    18.4760  19.4093  22.6467  23.0982

          k =-0.3536-0.4738 0.2333 ( 10618 PWs)   bands (ev):

   -47.9545 -20.0588 -20.0397 -20.0378 -11.5364  -1.0434   0.1921   0.3931
     8.2730  10.4626  10.9648  11.8193  15.3376  15.9238  16.8333  16.9953
    18.4035  19.3476  22.7382  23.1555

          k =-0.3536-0.4667 0.2404 ( 10618 PWs)   bands (ev):

   -47.9545 -20.0591 -20.0394 -20.0376 -11.5381  -1.0578   0.2186   0.4007
     8.2172  10.5175  11.0014  11.7783  15.4310  15.9206  16.8383  16.8728
    18.3317  19.2780  22.8321  23.2149

          k =-0.3536-0.4596 0.2475 ( 10622 PWs)   bands (ev):

   -47.9545 -20.0594 -20.0391 -20.0375 -11.5397  -1.0713   0.2443   0.4079
     8.1636  10.5710  11.0379  11.7389  15.5253  15.9141  16.7596  16.8452
    18.2608  19.2015  22.9277  23.2761

          k =-0.3536-0.4525 0.2546 ( 10624 PWs)   bands (ev):

   -47.9545 -20.0596 -20.0388 -20.0375 -11.5412  -1.0840   0.2691   0.4145
     8.1124  10.6229  11.0744  11.7014  15.6195  15.9026  16.6576  16.8545
    18.1913  19.1188  23.0243  23.3389

          k =-0.3536-0.4455 0.2616 ( 10624 PWs)   bands (ev):

   -47.9545 -20.0599 -20.0386 -20.0374 -11.5427  -1.0960   0.2929   0.4206
     8.0639  10.6726  11.1108  11.6660  15.7129  15.8843  16.5690  16.8668
    18.1234  19.0308  23.1215  23.4030

          k =-0.3536-0.4384 0.2687 ( 10626 PWs)   bands (ev):

   -47.9545 -20.0601 -20.0383 -20.0373 -11.5440  -1.1071   0.3155   0.4263
     8.0182  10.7197  11.1470  11.6328  15.8044  15.8572  16.4960  16.8829
    18.0575  18.9380  23.2186  23.4681

          k =-0.3536-0.4313 0.2758 ( 10626 PWs)   bands (ev):

   -47.9545 -20.0603 -20.0381 -20.0372 -11.5453  -1.1174   0.3368   0.4315
     7.9754  10.7638  11.1829  11.6020  15.8205  15.8928  16.4398  16.9036
    17.9940  18.8411  23.3151  23.5340

          k =-0.3536-0.4243 0.2828 ( 10632 PWs)   bands (ev):

   -47.9545 -20.0605 -20.0379 -20.0372 -11.5465  -1.1269   0.3568   0.4361
     7.9357  10.8045  11.2182  11.5736  15.7748  15.9768  16.3999  16.9302
    17.9334  18.7408  23.4106  23.6001

          k =-0.3536-0.4172 0.2899 ( 10622 PWs)   bands (ev):

   -47.9545 -20.0606 -20.0377 -20.0371 -11.5476  -1.1355   0.3752   0.4404
     7.8993  10.8416  11.2526  11.5478  15.7225  16.0548  16.3742  16.9638
    17.8760  18.6375  23.5045  23.6662

          k =-0.3536-0.4101 0.2970 ( 10622 PWs)   bands (ev):

   -47.9545 -20.0608 -20.0375 -20.0370 -11.5486  -1.1432   0.3920   0.4441
     7.8663  10.8748  11.2858  11.5245  15.6669  16.1253  16.3597  17.0057
    17.8225  18.5319  23.5963  23.7317

          k =-0.3536-0.4031 0.3041 ( 10628 PWs)   bands (ev):

   -47.9546 -20.0609 -20.0374 -20.0370 -11.5494  -1.1500   0.4071   0.4474
     7.8368  10.9040  11.3171  11.5039  15.6112  16.1872  16.3533  17.0568
    17.7732  18.4244  23.6853  23.7960

          k =-0.3536-0.3960 0.3111 ( 10626 PWs)   bands (ev):

   -47.9546 -20.0610 -20.0372 -20.0370 -11.5502  -1.1560   0.4204   0.4503
     7.8110  10.9293  11.3460  11.4860  15.5584  16.2395  16.3523  17.1177
    17.7288  18.3155  23.7705  23.8581

          k =-0.3536-0.3889 0.3182 ( 10626 PWs)   bands (ev):

   -47.9546 -20.0611 -20.0371 -20.0369 -11.5508  -1.1610   0.4317   0.4527
     7.7890  10.9505  11.3719  11.4708  15.5106  16.2822  16.3546  17.1881
    17.6899  18.2059  23.8509  23.9169

          k =-0.3536-0.3818 0.3253 ( 10620 PWs)   bands (ev):

   -47.9546 -20.0612 -20.0370 -20.0369 -11.5514  -1.1652   0.4412   0.4546
     7.7709  10.9678  11.3941  11.4583  15.4694  16.3155  16.3585  17.2671
    17.6569  18.0961  23.9246  23.9709

          k =-0.3536-0.3748 0.3323 ( 10610 PWs)   bands (ev):

   -47.9546 -20.0613 -20.0369 -20.0369 -11.5518  -1.1684   0.4485   0.4562
     7.7567  10.9811  11.4120  11.4486  15.4362  16.3401  16.3629  17.3535
    17.6306  17.9870  23.9891  24.0178

          k =-0.3536-0.3677 0.3394 ( 10612 PWs)   bands (ev):

   -47.9546 -20.0613 -20.0369 -20.0369 -11.5521  -1.1707   0.4539   0.4573
     7.7465  10.9906  11.4252  11.4416  15.4119  16.3570  16.3667  17.4449
    17.6114  17.8799  24.0409  24.0549

          k =-0.3536-0.3606 0.3465 ( 10616 PWs)   bands (ev):

   -47.9546 -20.0614 -20.0369 -20.0369 -11.5523  -1.1721   0.4571   0.4579
     7.7404  10.9963  11.4333  11.4374  15.3970  16.3669  16.3692  17.5367
    17.5997  17.7790  24.0752  24.0789

          k =-0.3536-0.3536 0.3536 ( 10646 PWs)   bands (ev):

   -47.9546 -20.0614 -20.0368 -20.0368 -11.5523  -1.1725   0.4581   0.4581
     7.7383  10.9982  11.4360  11.4360  15.3920  16.3701  16.3701  17.5958
    17.5958  17.7170  24.0873  24.0873

          k =-0.3465-0.3465 0.3465 ( 10615 PWs)   bands (ev):

   -47.9546 -20.0613 -20.0368 -20.0368 -11.5527  -1.1711   0.4584   0.4584
     7.7378  10.9952  11.4369  11.4369  15.3923  16.3465  16.3465  17.6221
    17.6221  17.7247  24.0504  24.0504

          k =-0.3394-0.3394 0.3394 ( 10615 PWs)   bands (ev):

   -47.9546 -20.0613 -20.0368 -20.0368 -11.5537  -1.1668   0.4591   0.4591
     7.7362  10.9862  11.4397  11.4397  15.3932  16.2810  16.2810  17.6956
    17.6956  17.7477  23.9549  23.9549

          k =-0.3323-0.3323 0.3323 ( 10615 PWs)   bands (ev):

   -47.9546 -20.0611 -20.0368 -20.0368 -11.5553  -1.1595   0.4602   0.4602
     7.7336  10.9715  11.4442  11.4442  15.3948  16.1850  16.1850  17.7857
    17.8049  17.8049  23.8254  23.8254

          k =-0.3253-0.3253 0.3253 ( 10615 PWs)   bands (ev):

   -47.9546 -20.0610 -20.0368 -20.0368 -11.5576  -1.1495   0.4619   0.4619
     7.7298  10.9514  11.4506  11.4506  15.3975  16.0696  16.0696  17.8381
    17.9389  17.9389  23.6772  23.6772

          k =-0.3182-0.3182 0.3182 ( 10630 PWs)   bands (ev):

   -47.9546 -20.0607 -20.0368 -20.0368 -11.5605  -1.1365   0.4640   0.4640
     7.7246  10.9263  11.4587  11.4587  15.4015  15.9427  15.9427  17.9044
    18.0899  18.0899  23.5184  23.5184

          k =-0.3111-0.3111 0.3111 ( 10636 PWs)   bands (ev):

   -47.9546 -20.0605 -20.0368 -20.0368 -11.5640  -1.1208   0.4665   0.4665
     7.7180  10.8967  11.4685  11.4685  15.4071  15.8092  15.8092  17.9837
    18.2527  18.2527  23.3530  23.3530

          k =-0.3041-0.3041 0.3041 ( 10642 PWs)   bands (ev):

   -47.9546 -20.0601 -20.0368 -20.0368 -11.5682  -1.1023   0.4695   0.4695
     7.7098  10.8634  11.4801  11.4801  15.4148  15.6724  15.6724  18.0752
    18.4242  18.4242  23.1830  23.1830

          k =-0.2970-0.2970 0.2970 ( 10648 PWs)   bands (ev):

   -47.9546 -20.0598 -20.0367 -20.0367 -11.5729  -1.0810   0.4730   0.4730
     7.6997  10.8269  11.4933  11.4933  15.4248  15.5343  15.5343  18.1780
    18.6022  18.6022  23.0101  23.0101

          k =-0.2899-0.2899 0.2899 ( 10627 PWs)   bands (ev):

   -47.9546 -20.0593 -20.0367 -20.0367 -11.5782  -1.0570   0.4768   0.4768
     7.6875  10.7881  11.5081  11.5081  15.3964  15.3964  15.4374  18.2912
    18.7855  18.7855  22.8350  22.8350

          k =-0.2828-0.2828 0.2828 ( 10615 PWs)   bands (ev):

   -47.9546 -20.0589 -20.0367 -20.0367 -11.5840  -1.0304   0.4811   0.4811
     7.6729  10.7478  11.5245  11.5245  15.2595  15.2595  15.4528  18.4140
    18.9731  18.9731  22.6584  22.6584

          k =-0.2758-0.2758 0.2758 ( 10621 PWs)   bands (ev):

   -47.9546 -20.0584 -20.0366 -20.0366 -11.5904  -1.0012   0.4858   0.4858
     7.6557  10.7069  11.5423  11.5423  15.1243  15.1243  15.4710  18.5454
    19.1642  19.1642  22.4809  22.4809

          k =-0.2687-0.2687 0.2687 ( 10621 PWs)   bands (ev):

   -47.9547 -20.0578 -20.0366 -20.0366 -11.5972  -0.9694   0.4908   0.4908
     7.6355  10.6661  11.5615  11.5615  14.9914  14.9914  15.4924  18.6848
    19.3583  19.3583  22.3029  22.3029

          k =-0.2616-0.2616 0.2616 ( 10633 PWs)   bands (ev):

   -47.9547 -20.0572 -20.0365 -20.0365 -11.6045  -0.9352   0.4962   0.4962
     7.6120  10.6264  11.5820  11.5820  14.8613  14.8613  15.5167  18.8311
    19.5550  19.5550  22.1041  22.1250

          k =-0.2546-0.2546 0.2546 ( 10636 PWs)   bands (ev):

   -47.9547 -20.0566 -20.0365 -20.0365 -11.6122  -0.8987   0.5020   0.5020
     7.5849  10.5886  11.6036  11.6036  14.7342  14.7342  15.5442  18.9835
    19.7537  19.7537  21.8604  21.9474

          k =-0.2475-0.2475 0.2475 ( 10633 PWs)   bands (ev):

   -47.9547 -20.0560 -20.0364 -20.0364 -11.6203  -0.8598   0.5080   0.5080
     7.5540  10.5535  11.6263  11.6263  14.6106  14.6106  15.5746  19.1409
    19.9539  19.9539  21.6180  21.7708

          k =-0.2404-0.2404 0.2404 ( 10639 PWs)   bands (ev):

   -47.9547 -20.0553 -20.0364 -20.0364 -11.6287  -0.8186   0.5144   0.5144
     7.5190  10.5217  11.6498  11.6498  14.4906  14.4906  15.6080  19.3020
    20.1550  20.1550  21.3783  21.5959

          k =-0.2333-0.2333 0.2333 ( 10639 PWs)   bands (ev):

   -47.9547 -20.0546 -20.0363 -20.0363 -11.6375  -0.7754   0.5211   0.5211
     7.4798  10.4940  11.6739  11.6739  14.3747  14.3747  15.6442  19.4646
    20.3553  20.3553  21.1434  21.4242

          k =-0.2263-0.2263 0.2263 ( 10633 PWs)   bands (ev):

   -47.9548 -20.0538 -20.0363 -20.0363 -11.6465  -0.7302   0.5280   0.5280
     7.4362  10.4709  11.6984  11.6984  14.2632  14.2632  15.6830  19.6247
    20.5508  20.5508  20.9175  21.2597

          k =-0.2192-0.2192 0.2192 ( 10642 PWs)   bands (ev):

   -47.9548 -20.0531 -20.0362 -20.0362 -11.6558  -0.6830   0.5351   0.5351
     7.3882  10.4529  11.7231  11.7231  14.1562  14.1562  15.7242  19.7725
    20.7103  20.7235  20.7235  21.1205

          k =-0.2121-0.2121 0.2121 ( 10642 PWs)   bands (ev):

   -47.9548 -20.0523 -20.0362 -20.0362 -11.6653  -0.6340   0.5425   0.5425
     7.3358  10.4403  11.7477  11.7477  14.0543  14.0543  15.7677  19.8795
    20.5504  20.7757  20.7757  21.1043

          k =-0.2051-0.2051 0.2051 ( 10630 PWs)   bands (ev):

   -47.9548 -20.0515 -20.0361 -20.0361 -11.6749  -0.5833   0.5500   0.5500
     7.2790  10.4334  11.7718  11.7718  13.9578  13.9578  15.8132  19.8806
    20.5029  20.6624  20.6624  21.2561

          k =-0.1980-0.1980 0.1980 ( 10633 PWs)   bands (ev):

   -47.9548 -20.0507 -20.0360 -20.0360 -11.6847  -0.5311   0.5577   0.5577
     7.2182  10.4323  11.7950  11.7950  13.8670  13.8670  15.8603  19.7557
    20.5083  20.5083  20.5878  21.4511

          k =-0.1909-0.1909 0.1909 ( 10645 PWs)   bands (ev):

   -47.9549 -20.0499 -20.0360 -20.0360 -11.6945  -0.4775   0.5655   0.5655
     7.1535  10.4372  11.8169  11.8169  13.7824  13.7824  15.9088  19.5709
    20.3468  20.3468  20.7392  21.6559

          k =-0.1838-0.1838 0.1838 ( 10633 PWs)   bands (ev):

   -47.9549 -20.0490 -20.0359 -20.0359 -11.7044  -0.4226   0.5734   0.5734
     7.0852  10.4480  11.8371  11.8371  13.7045  13.7045  15.9582  19.3670
    20.1843  20.1843  20.9164  21.8641

          k =-0.1768-0.1768 0.1768 ( 10642 PWs)   bands (ev):

   -47.9549 -20.0482 -20.0359 -20.0359 -11.7143  -0.3665   0.5813   0.5813
     7.0138  10.4645  11.8550  11.8550  13.6338  13.6338  16.0082  19.1580
    20.0226  20.0226  21.1056  22.0738

          k =-0.1697-0.1697 0.1697 ( 10633 PWs)   bands (ev):

   -47.9549 -20.0474 -20.0358 -20.0358 -11.7242  -0.3095   0.5893   0.5893
     6.9396  10.4867  11.8700  11.8700  13.5707  13.5707  16.0580  18.9493
    19.8627  19.8627  21.3016  22.2838

          k =-0.1626-0.1626 0.1626 ( 10633 PWs)   bands (ev):

   -47.9550 -20.0465 -20.0357 -20.0357 -11.7340  -0.2518   0.5973   0.5973
     6.8631  10.5143  11.8818  11.8818  13.5157  13.5157  16.1070  18.7439
    19.7050  19.7050  21.5020  22.4938

          k =-0.1556-0.1556 0.1556 ( 10633 PWs)   bands (ev):

   -47.9550 -20.0457 -20.0357 -20.0357 -11.7437  -0.1934   0.6052   0.6052
     6.7847  10.5470  11.8897  11.8897  13.4692  13.4692  16.1544  18.5435
    19.5499  19.5499  21.7053  22.7031

          k =-0.1485-0.1485 0.1485 ( 10633 PWs)   bands (ev):

   -47.9550 -20.0449 -20.0356 -20.0356 -11.7532  -0.1347   0.6131   0.6131
     6.7049  10.5846  11.8936  11.8936  13.4314  13.4314  16.1989  18.3499
    19.3978  19.3978  21.9107  22.9113

          k =-0.1414-0.1414 0.1414 ( 10615 PWs)   bands (ev):

   -47.9550 -20.0441 -20.0355 -20.0355 -11.7625  -0.0757   0.6209   0.6209
     6.6243  10.6267  11.8931  11.8931  13.4026  13.4026  16.2390  18.1650
    19.2489  19.2489  22.1175  23.1179

          k =-0.1344-0.1344 0.1344 ( 10639 PWs)   bands (ev):

   -47.9550 -20.0433 -20.0355 -20.0355 -11.7717  -0.0168   0.6285   0.6285
     6.5432  10.6729  11.8882  11.8882  13.3824  13.3824  16.2728  17.9910
    19.1035  19.1035  22.3251  23.3225

          k =-0.1273-0.1273 0.1273 ( 10651 PWs)   bands (ev):

   -47.9551 -20.0425 -20.0354 -20.0354 -11.7806   0.0418   0.6360   0.6360
     6.4623  10.7230  11.8791  11.8791  13.3708  13.3708  16.2974  17.8307
    18.9619  18.9619  22.5328  23.5246

          k =-0.1202-0.1202 0.1202 ( 10657 PWs)   bands (ev):

   -47.9551 -20.0418 -20.0354 -20.0354 -11.7892   0.0999   0.6433   0.6433
     6.3819  10.7764  11.8661  11.8661  13.3671  13.3671  16.3095  17.6876
    18.8244  18.8244  22.7399  23.7236

          k =-0.1131-0.1131 0.1131 ( 10651 PWs)   bands (ev):

   -47.9551 -20.0411 -20.0353 -20.0353 -11.7974   0.1573   0.6504   0.6504
     6.3025  10.8328  11.8499  11.8499  13.3706  13.3706  16.3050  17.5658
    18.6913  18.6913  22.9456  23.9189

          k =-0.1061-0.1061 0.1061 ( 10657 PWs)   bands (ev):

   -47.9551 -20.0404 -20.0353 -20.0353 -11.8054   0.2135   0.6572   0.6572
     6.2247  10.8917  11.8308  11.8308  13.3805  13.3805  16.2803  17.4692
    18.5628  18.5628  23.1489  24.1098

          k =-0.0990-0.0990 0.0990 ( 10663 PWs)   bands (ev):

   -47.9551 -20.0397 -20.0352 -20.0352 -11.8129   0.2684   0.6638   0.6638
     6.1490  10.9525  11.8098  11.8098  13.3958  13.3958  16.2332  17.3998
    18.4395  18.4395  23.3483  24.2957

          k =-0.0919-0.0919 0.0919 ( 10666 PWs)   bands (ev):

   -47.9552 -20.0391 -20.0352 -20.0352 -11.8201   0.3217   0.6700   0.6700
     6.0757  11.0148  11.7874  11.7874  13.4155  13.4155  16.1650  17.3567
    18.3216  18.3216  23.5416  24.4755

          k =-0.0849-0.0849 0.0849 ( 10684 PWs)   bands (ev):

   -47.9552 -20.0385 -20.0351 -20.0351 -11.8268   0.3729   0.6759   0.6759
     6.0054  11.0779  11.7642  11.7642  13.4388  13.4388  16.0797  17.3361
    18.2095  18.2095  23.7250  24.6486

          k =-0.0778-0.0778 0.0778 ( 10684 PWs)   bands (ev):

   -47.9552 -20.0379 -20.0351 -20.0351 -11.8331   0.4218   0.6814   0.6814
     5.9385  11.1412  11.7410  11.7410  13.4645  13.4645  15.9828  17.3325
    18.1038  18.1038  23.8926  24.8137

          k =-0.0707-0.0707 0.0707 ( 10678 PWs)   bands (ev):

   -47.9552 -20.0374 -20.0350 -20.0350 -11.8389   0.4680   0.6866   0.6866
     5.8755  11.2039  11.7183  11.7183  13.4919  13.4919  15.8798  17.3408
    18.0047  18.0047  24.0341  24.9271

          k =-0.0636-0.0636 0.0636 ( 10678 PWs)   bands (ev):

   -47.9552 -20.0369 -20.0350 -20.0350 -11.8442   0.5112   0.6913   0.6913
     5.8169  11.2651  11.6964  11.6964  13.5199  13.5199  15.7754  17.3566
    17.9129  17.9129  24.1358  24.9333

          k =-0.0566-0.0566 0.0566 ( 10675 PWs)   bands (ev):

   -47.9552 -20.0365 -20.0350 -20.0350 -11.8491   0.5510   0.6956   0.6956
     5.7630  11.3241  11.6760  11.6760  13.5477  13.5477  15.6735  17.3767
    17.8288  17.8288  24.1889  24.9916

          k =-0.0495-0.0495 0.0495 ( 10681 PWs)   bands (ev):

   -47.9552 -20.0361 -20.0350 -20.0350 -11.8533   0.5872   0.6994   0.6994
     5.7143  11.3797  11.6572  11.6572  13.5744  13.5744  15.5770  17.3985
    17.7529  17.7529  24.2003  25.0938

          k =-0.0424-0.0424 0.0424 ( 10705 PWs)   bands (ev):

   -47.9552 -20.0358 -20.0349 -20.0349 -11.8571   0.6193   0.7028   0.7028
     5.6712  11.4311  11.6403  11.6403  13.5994  13.5994  15.4883  17.4203
    17.6859  17.6859  24.1868  25.2215

          k =-0.0354-0.0354 0.0354 ( 10705 PWs)   bands (ev):

   -47.9552 -20.0355 -20.0349 -20.0349 -11.8603   0.6470   0.7056   0.7056
     5.6341  11.4770  11.6257  11.6257  13.6220  13.6220  15.4096  17.4406
    17.6280  17.6280  24.1626  25.3580

          k =-0.0283-0.0283 0.0283 ( 10708 PWs)   bands (ev):

   -47.9553 -20.0353 -20.0349 -20.0349 -11.8629   0.6701   0.7080   0.7080
     5.6032  11.5165  11.6135  11.6135  13.6413  13.6413  15.3426  17.4584
    17.5800  17.5800  24.1363  25.4912

          k =-0.0212-0.0212 0.0212 ( 10732 PWs)   bands (ev):

   -47.9553 -20.0351 -20.0349 -20.0349 -11.8649   0.6884   0.7098   0.7098
     5.5789  11.5485  11.6039  11.6039  13.6570  13.6570  15.2889  17.4730
    17.5421  17.5421  24.1127  25.6109

          k =-0.0141-0.0141 0.0141 ( 10747 PWs)   bands (ev):

   -47.9553 -20.0350 -20.0349 -20.0349 -11.8664   0.7016   0.7112   0.7112
     5.5613  11.5720  11.5970  11.5970  13.6686  13.6686  15.2495  17.4838
    17.5148  17.5148  24.0945  25.7074

          k =-0.0071-0.0071 0.0071 ( 10777 PWs)   bands (ev):

   -47.9553 -20.0349 -20.0349 -20.0349 -11.8673   0.7096   0.7120   0.7120
     5.5507  11.5865  11.5928  11.5928  13.6757  13.6757  15.2255  17.4905
    17.4982  17.4982  24.0831  25.7709

          k = 0.0000 0.0000 0.0000 ( 10777 PWs)   bands (ev):

   -47.9553 -20.0349 -20.0349 -20.0349 -11.8676   0.7122   0.7122   0.7122
     5.5472  11.5913  11.5913  11.5913  13.6780  13.6780  15.2175  17.4927
    17.4927  17.4927  24.0792  25.7932

          k = 0.0000-0.0141 0.0000 ( 10777 PWs)   bands (ev):

   -47.9553 -20.0349 -20.0349 -20.0349 -11.8672   0.7093   0.7116   0.7116
     5.5519  11.5840  11.5936  11.5936  13.6704  13.6794  15.2282  17.4953
    17.4953  17.4992  24.0844  25.7663

          k = 0.0000-0.0283 0.0000 ( 10745 PWs)   bands (ev):

   -47.9553 -20.0350 -20.0349 -20.0349 -11.8660   0.7004   0.7096   0.7096
     5.5660  11.5624  11.6005  11.6005  13.6475  13.6834  15.2602  17.5031
    17.5031  17.5187  24.0998  25.6900

          k = 0.0000-0.0424 0.0000 ( 10713 PWs)   bands (ev):

   -47.9553 -20.0351 -20.0349 -20.0349 -11.8641   0.6858   0.7064   0.7064
     5.5894  11.5272  11.6119  11.6119  13.6100  13.6901  15.3126  17.5162
    17.5162  17.5506  24.1250  25.5739

          k = 0.0000-0.0566 0.0000 ( 10705 PWs)   bands (ev):

   -47.9552 -20.0353 -20.0350 -20.0350 -11.8613   0.6657   0.7019   0.7019
     5.6218  11.4796  11.6278  11.6278  13.5586  13.6994  15.3844  17.5344
    17.5344  17.5943  24.1591  25.4289

          k = 0.0000-0.0707 0.0000 ( 10705 PWs)   bands (ev):

   -47.9552 -20.0355 -20.0350 -20.0350 -11.8579   0.6404   0.6961   0.6961
     5.6628  11.4209  11.6482  11.6482  13.4946  13.7114  15.4740  17.5578
    17.5578  17.6489  24.2007  25.2634

          k = 0.0000-0.0849 0.0000 ( 10689 PWs)   bands (ev):

   -47.9552 -20.0358 -20.0351 -20.0351 -11.8536   0.6101   0.6891   0.6891
     5.7122  11.3529  11.6730  11.6730  13.4190  13.7260  15.5800  17.5865
    17.5865  17.7136  24.2479  25.0837

          k = 0.0000-0.0990 0.0000 ( 10693 PWs)   bands (ev):

   -47.9552 -20.0361 -20.0352 -20.0352 -11.8487   0.5755   0.6810   0.6810
     5.7694  11.2768  11.7022  11.7022  13.3332  13.7433  15.7008  17.6202
    17.6202  17.7873  24.2975  24.8940

          k = 0.0000-0.1131 0.0000 ( 10693 PWs)   bands (ev):

   -47.9552 -20.0365 -20.0353 -20.0353 -11.8431   0.5368   0.6717   0.6717
     5.8339  11.1944  11.7357  11.7357  13.2386  13.7631  15.8348  17.6592
    17.6592  17.8692  24.3449  24.6974

          k = 0.0000-0.1273 0.0000 ( 10693 PWs)   bands (ev):

   -47.9552 -20.0369 -20.0354 -20.0354 -11.8368   0.4945   0.6614   0.6614
     5.9053  11.1068  11.7734  11.7734  13.1364  13.7855  15.9808  17.7032
    17.7032  17.9583  24.3832  24.4958

          k = 0.0000-0.1414 0.0000 ( 10677 PWs)   bands (ev):

   -47.9552 -20.0373 -20.0356 -20.0356 -11.8298   0.4492   0.6500   0.6500
     5.9829  11.0152  11.8152  11.8152  13.0278  13.8104  16.1375  17.7523
    17.7523  18.0540  24.2909  24.2909

          k = 0.0000-0.1556 0.0000 ( 10677 PWs)   bands (ev):

   -47.9552 -20.0378 -20.0357 -20.0357 -11.8223   0.4012   0.6377   0.6377
     6.0663  10.9208  11.8611  11.8611  12.9141  13.8379  16.3039  17.8064
    17.8064  18.1555  24.0839  24.0839

          k = 0.0000-0.1697 0.0000 ( 10681 PWs)   bands (ev):

   -47.9551 -20.0383 -20.0359 -20.0359 -11.8142   0.3510   0.6244   0.6244
     6.1549  10.8244  11.9110  11.9110  12.7963  13.8678  16.4790  17.8655
    17.8655  18.2623  23.8756  23.8756

          k = 0.0000-0.1838 0.0000 ( 10669 PWs)   bands (ev):

   -47.9551 -20.0388 -20.0360 -20.0360 -11.8056   0.2991   0.6103   0.6103
     6.2480  10.7268  11.9647  11.9647  12.6754  13.9001  16.6620  17.9294
    17.9294  18.3739  23.6669  23.6669

          k = 0.0000-0.1980 0.0000 ( 10677 PWs)   bands (ev):

   -47.9551 -20.0394 -20.0362 -20.0362 -11.7964   0.2459   0.5955   0.5955
     6.3452  10.6287  12.0222  12.0222  12.5525  13.9348  16.8523  17.9980
    17.9980  18.4898  23.4583  23.4583

          k = 0.0000-0.2121 0.0000 ( 10649 PWs)   bands (ev):

   -47.9551 -20.0400 -20.0364 -20.0364 -11.7869   0.1917   0.5799   0.5799
     6.4458  10.5305  12.0833  12.0833  12.4284  13.9718  17.0492  18.0713
    18.0713  18.6098  23.2506  23.2506

          k = 0.0000-0.2263 0.0000 ( 10649 PWs)   bands (ev):

   -47.9550 -20.0406 -20.0366 -20.0366 -11.7769   0.1370   0.5638   0.5638
     6.5493  10.4328  12.1478  12.1478  12.3039  14.0110  17.2521  18.1489
    18.1489  18.7336  23.0444  23.0444

          k = 0.0000-0.2404 0.0000 ( 10641 PWs)   bands (ev):

   -47.9550 -20.0412 -20.0368 -20.0368 -11.7665   0.0820   0.5471   0.5471
     6.6552  10.3359  12.1800  12.2158  12.2158  14.0525  17.4608  18.2306
    18.2306  18.8608  22.8400  22.8400

          k = 0.0000-0.2546 0.0000 ( 10650 PWs)   bands (ev):

   -47.9550 -20.0418 -20.0370 -20.0370 -11.7559   0.0270   0.5300   0.5300
     6.7627  10.2403  12.0574  12.2871  12.2871  14.0960  17.6747  18.3162
    18.3162  18.9912  22.6383  22.6383

          k = 0.0000-0.2687 0.0000 ( 10642 PWs)   bands (ev):

   -47.9550 -20.0424 -20.0372 -20.0372 -11.7450  -0.0275   0.5124   0.5124
     6.8715  10.1461  11.9368  12.3615  12.3615  14.1416  17.8934  18.4051
    18.4051  19.1245  22.4399  22.4399

          k = 0.0000-0.2828 0.0000 ( 10630 PWs)   bands (ev):

   -47.9549 -20.0430 -20.0374 -20.0374 -11.7339  -0.0815   0.4946   0.4946
     6.9807  10.0537  11.8192  12.4389  12.4389  14.1891  18.1167  18.4968
    18.4968  19.2603  22.2456  22.2456

          k = 0.0000-0.2970 0.0000 ( 10622 PWs)   bands (ev):

   -47.9549 -20.0436 -20.0376 -20.0376 -11.7226  -0.1347   0.4765   0.4765
     7.0897   9.9632  11.7053  12.5193  12.5193  14.2385  18.3442  18.5904
    18.5904  19.3984  22.0563  22.0563

          k = 0.0000-0.3111 0.0000 ( 10614 PWs)   bands (ev):

   -47.9549 -20.0443 -20.0379 -20.0379 -11.7112  -0.1868   0.4583   0.4583
     7.1978   9.8749  11.5958  12.6024  12.6024  14.2896  18.5757  18.6850
    18.6850  19.5380  21.8733  21.8733

          k = 0.0000-0.3253 0.0000 ( 10598 PWs)   bands (ev):

   -47.9549 -20.0449 -20.0381 -20.0381 -11.6997  -0.2377   0.4400   0.4400
     7.3043   9.7889  11.4918  12.6882  12.6882  14.3424  18.7789  18.7789
    18.8108  19.6782  21.6982  21.6982

          k = 0.0000-0.3394 0.0000 ( 10586 PWs)   bands (ev):

   -47.9548 -20.0455 -20.0383 -20.0383 -11.6882  -0.2872   0.4217   0.4217
     7.4083   9.7053  11.3941  12.7765  12.7765  14.3966  18.8703  18.8703
    19.0493  19.8175  21.5332  21.5332

          k = 0.0000-0.3536 0.0000 ( 10586 PWs)   bands (ev):

   -47.9548 -20.0461 -20.0386 -20.0386 -11.6768  -0.3353   0.4035   0.4035
     7.5090   9.6242  11.3035  12.8672  12.8672  14.4522  18.9562  18.9562
    19.2909  19.9529  21.3811  21.3811

          k = 0.0000-0.3677 0.0000 ( 10578 PWs)   bands (ev):

   -47.9548 -20.0466 -20.0388 -20.0388 -11.6654  -0.3817   0.3854   0.3854
     7.6053   9.5458  11.2212  12.9602  12.9602  14.5090  19.0328  19.0328
    19.5352  20.0786  21.2459  21.2459

          k = 0.0000-0.3818 0.0000 ( 10602 PWs)   bands (ev):

   -47.9547 -20.0472 -20.0390 -20.0390 -11.6541  -0.4263   0.3675   0.3675
     7.6964   9.4702  11.1480  13.0554  13.0554  14.5668  19.0952  19.0952
    19.7819  20.1817  21.1327  21.1327

          k = 0.0000-0.3960 0.0000 ( 10614 PWs)   bands (ev):

   -47.9547 -20.0477 -20.0393 -20.0393 -11.6430  -0.4692   0.3499   0.3499
     7.7813   9.3974  11.0851  13.1526  13.1526  14.6255  19.1374  19.1374
    20.0308  20.2355  21.0473  21.0473

          k = 0.0000-0.4101 0.0000 ( 10614 PWs)   bands (ev):

   -47.9547 -20.0482 -20.0395 -20.0395 -11.6321  -0.5101   0.3326   0.3326
     7.8588   9.3275  11.0332  13.2518  13.2518  14.6848  19.1537  19.1537
    20.2048  20.2814  20.9957  20.9957

          k = 0.0000-0.4243 0.0000 ( 10618 PWs)   bands (ev):

   -47.9547 -20.0487 -20.0397 -20.0397 -11.6215  -0.5491   0.3157   0.3157
     7.9282   9.2605  10.9933  13.3527  13.3527  14.7446  19.1399  19.1399
    20.0883  20.5332  20.9819  20.9819

          k = 0.0000-0.4384 0.0000 ( 10622 PWs)   bands (ev):

   -47.9546 -20.0492 -20.0399 -20.0399 -11.6112  -0.5862   0.2993   0.2993
     7.9887   9.1965  10.9660  13.4552  13.4552  14.8046  19.0953  19.0953
    19.9215  20.7858  21.0067  21.0067

          k = 0.0000-0.4525 0.0000 ( 10614 PWs)   bands (ev):

   -47.9546 -20.0496 -20.0401 -20.0401 -11.6011  -0.6212   0.2834   0.2834
     8.0397   9.1356  10.9518  13.5591  13.5591  14.8646  19.0231  19.0231
    19.7324  21.0386  21.0670  21.0670

          k = 0.0000-0.4667 0.0000 ( 10642 PWs)   bands (ev):

   -47.9546 -20.0500 -20.0404 -20.0404 -11.5915  -0.6542   0.2680   0.2680
     8.0810   9.0778  10.9505  13.6644  13.6644  14.9242  18.9283  18.9283
    19.5350  21.1575  21.1575  21.2910

          k = 0.0000-0.4808 0.0000 ( 10634 PWs)   bands (ev):

   -47.9546 -20.0504 -20.0406 -20.0406 -11.5822  -0.6851   0.2533   0.2533
     8.1127   9.0232  10.9620  13.7707  13.7707  14.9833  18.8168  18.8168
    19.3360  21.2724  21.2724  21.5422

          k = 0.0000-0.4950 0.0000 ( 10618 PWs)   bands (ev):

   -47.9545 -20.0508 -20.0408 -20.0408 -11.5733  -0.7140   0.2392   0.2392
     8.1352   8.9717  10.9854  13.8779  13.8779  15.0415  18.6936  18.6936
    19.1389  21.4067  21.4067  21.7912

          k = 0.0000-0.5091 0.0000 ( 10622 PWs)   bands (ev):

   -47.9545 -20.0511 -20.0409 -20.0409 -11.5649  -0.7408   0.2258   0.2258
     8.1494   8.9234  11.0196  13.9856  13.9856  15.0984  18.5629  18.5629
    18.9458  21.5561  21.5561  22.0209

          k = 0.0000-0.5233 0.0000 ( 10638 PWs)   bands (ev):

   -47.9545 -20.0514 -20.0411 -20.0411 -11.5570  -0.7657   0.2132   0.2132
     8.1561   8.8784  11.0632  14.0937  14.0937  15.1538  18.4277  18.4277
    18.7583  21.7174  21.7174  22.2007

          k = 0.0000-0.5374 0.0000 ( 10638 PWs)   bands (ev):

   -47.9545 -20.0517 -20.0413 -20.0413 -11.5496  -0.7885   0.2014   0.2014
     8.1565   8.8366  11.1146  14.2016  14.2016  15.2073  18.2905  18.2905
    18.5778  21.8879  21.8879  22.3829

          k = 0.0000-0.5515 0.0000 ( 10634 PWs)   bands (ev):

   -47.9544 -20.0520 -20.0414 -20.0414 -11.5427  -0.8093   0.1904   0.1904
     8.1520   8.7981  11.1718  14.3089  14.3089  15.2584  18.1534  18.1534
    18.4054  22.0655  22.0655  22.5671

          k = 0.0000-0.5657 0.0000 ( 10638 PWs)   bands (ev):

   -47.9544 -20.0522 -20.0416 -20.0416 -11.5363  -0.8282   0.1802   0.1802
     8.1436   8.7629  11.2329  14.4151  14.4151  15.3069  18.0178  18.0178
    18.2422  22.2481  22.2481  22.7525

          k = 0.0000-0.5798 0.0000 ( 10642 PWs)   bands (ev):

   -47.9544 -20.0524 -20.0417 -20.0417 -11.5305  -0.8452   0.1709   0.1709
     8.1326   8.7309  11.2960  14.5194  14.5194  15.3523  17.8855  17.8855
    18.0894  22.4339  22.4339  22.9385

          k = 0.0000-0.5940 0.0000 ( 10634 PWs)   bands (ev):

   -47.9544 -20.0526 -20.0418 -20.0418 -11.5253  -0.8603   0.1625   0.1625
     8.1201   8.7024  11.3591  14.6208  14.6208  15.3943  17.7580  17.7580
    17.9480  22.6208  22.6208  23.1244

          k = 0.0000-0.6081 0.0000 ( 10642 PWs)   bands (ev):

   -47.9544 -20.0528 -20.0419 -20.0419 -11.5206  -0.8735   0.1551   0.1551
     8.1069   8.6771  11.4204  14.7182  14.7182  15.4324  17.6367  17.6367
    17.8193  22.8061  22.8061  23.0393

          k = 0.0000-0.6223 0.0000 ( 10634 PWs)   bands (ev):

   -47.9544 -20.0529 -20.0420 -20.0420 -11.5166  -0.8849   0.1486   0.1486
     8.0939   8.6552  11.4780  14.8100  14.8100  15.4663  17.5237  17.5237
    17.7046  22.9643  22.9869  22.9869

          k = 0.0000-0.6364 0.0000 ( 10642 PWs)   bands (ev):

   -47.9544 -20.0530 -20.0421 -20.0421 -11.5131  -0.8945   0.1430   0.1430
     8.0818   8.6367  11.5301  14.8945  14.8945  15.4956  17.4210  17.4210
    17.6049  22.9001  23.1590  23.1590

          k = 0.0000-0.6505 0.0000 ( 10638 PWs)   bands (ev):

   -47.9544 -20.0531 -20.0422 -20.0422 -11.5103  -0.9023   0.1385   0.1385
     8.0711   8.6215  11.5753  14.9692  14.9692  15.5201  17.3310  17.3310
    17.5214  22.8471  23.3171  23.3171

          k = 0.0000-0.6647 0.0000 ( 10630 PWs)   bands (ev):

   -47.9543 -20.0532 -20.0422 -20.0422 -11.5081  -0.9084   0.1350   0.1350
     8.0624   8.6096  11.6120  15.0317  15.0317  15.5394  17.2566  17.2566
    17.4552  22.8055  23.4543  23.4543

          k = 0.0000-0.6788 0.0000 ( 10606 PWs)   bands (ev):

   -47.9543 -20.0533 -20.0423 -20.0423 -11.5065  -0.9127   0.1324   0.1324
     8.0559   8.6012  11.6391  15.0791  15.0791  15.5534  17.2006  17.2006
    17.4072  22.7756  23.5622  23.5622

          k = 0.0000-0.6930 0.0000 ( 10598 PWs)   bands (ev):

   -47.9543 -20.0533 -20.0423 -20.0423 -11.5055  -0.9152   0.1309   0.1309
     8.0519   8.5961  11.6557  15.1088  15.1088  15.5618  17.1657  17.1657
    17.3782  22.7576  23.6318  23.6318

          k = 0.0000-0.7071 0.0000 ( 10574 PWs)   bands (ev):

   -47.9543 -20.0533 -20.0423 -20.0423 -11.5052  -0.9161   0.1304   0.1304
     8.0506   8.5944  11.6613  15.1190  15.1190  15.5647  17.1539  17.1539
    17.3684  22.7516  23.6560  23.6560

          k =-0.0071-0.7071 0.0000 ( 10602 PWs)   bands (ev):

   -47.9543 -20.0533 -20.0423 -20.0423 -11.5052  -0.9159   0.1300   0.1302
     8.0515   8.5952  11.6606  15.1044  15.1193  15.5770  17.1534  17.1539
    17.3708  22.7465  23.6553  23.6592

          k =-0.0141-0.7071 0.0000 ( 10606 PWs)   bands (ev):

   -47.9543 -20.0533 -20.0423 -20.0423 -11.5052  -0.9153   0.1291   0.1298
     8.0541   8.5976  11.6583  15.0648  15.1204  15.6100  17.1521  17.1541
    17.3780  22.7316  23.6530  23.6684

          k =-0.0212-0.7071 0.0000 ( 10610 PWs)   bands (ev):

   -47.9543 -20.0533 -20.0423 -20.0423 -11.5051  -0.9142   0.1274   0.1290
     8.0585   8.6015  11.6545  15.0081  15.1223  15.6556  17.1499  17.1543
    17.3901  22.7077  23.6493  23.6830

          k =-0.0283-0.7071 0.0000 ( 10622 PWs)   bands (ev):

   -47.9543 -20.0533 -20.0423 -20.0423 -11.5050  -0.9127   0.1252   0.1279
     8.0647   8.6070  11.6492  14.9407  15.1249  15.7075  17.1468  17.1547
    17.4070  22.6761  23.6441  23.7018

          k =-0.0354-0.7071 0.0000 ( 10622 PWs)   bands (ev):

   -47.9543 -20.0532 -20.0424 -20.0423 -11.5049  -0.9109   0.1222   0.1265
     8.0726   8.6140  11.6424  14.8664  15.1282  15.7617  17.1428  17.1551
    17.4287  22.6381  23.6374  23.7239

          k =-0.0424-0.7071 0.0000 ( 10626 PWs)   bands (ev):

   -47.9543 -20.0532 -20.0424 -20.0424 -11.5047  -0.9086   0.1187   0.1249
     8.0823   8.6226  11.6341  14.7877  15.1323  15.8160  17.1379  17.1556
    17.4552  22.5952  23.6294  23.7482

          k =-0.0495-0.7071 0.0000 ( 10624 PWs)   bands (ev):

   -47.9543 -20.0532 -20.0424 -20.0424 -11.5045  -0.9058   0.1145   0.1229
     8.0937   8.6327  11.6243  14.7058  15.1371  15.8689  17.1321  17.1563
    17.4866  22.5487  23.6201  23.7740

          k =-0.0566-0.7071 0.0000 ( 10624 PWs)   bands (ev):

   -47.9543 -20.0531 -20.0425 -20.0424 -11.5043  -0.9027   0.1097   0.1207
     8.1068   8.6443  11.6131  14.6217  15.1427  15.9197  17.1253  17.1570
    17.5226  22.4995  23.6095  23.8006

          k =-0.0636-0.7071 0.0000 ( 10628 PWs)   bands (ev):

   -47.9543 -20.0531 -20.0425 -20.0424 -11.5040  -0.8991   0.1043   0.1182
     8.1216   8.6574  11.6004  14.5358  15.1490  15.9679  17.1175  17.1578
    17.5632  22.4486  23.5978  23.8276

          k =-0.0707-0.7071 0.0000 ( 10616 PWs)   bands (ev):

   -47.9543 -20.0530 -20.0426 -20.0425 -11.5038  -0.8952   0.0983   0.1154
     8.1380   8.6720  11.5862  14.4488  15.1560  16.0131  17.1087  17.1587
    17.6082  22.3969  23.5849  23.8548

          k =-0.0778-0.7071 0.0000 ( 10620 PWs)   bands (ev):

   -47.9543 -20.0530 -20.0426 -20.0425 -11.5035  -0.8908   0.0916   0.1124
     8.1561   8.6881  11.5706  14.3608  15.1638  16.0553  17.0989  17.1597
    17.6574  22.3450  23.5710  23.8820

          k =-0.0849-0.7071 0.0000 ( 10632 PWs)   bands (ev):

   -47.9543 -20.0529 -20.0427 -20.0426 -11.5032  -0.8860   0.0844   0.1092
     8.1758   8.7057  11.5536  14.2722  15.1724  16.0944  17.0881  17.1607
    17.7105  22.2933  23.5562  23.8668

          k =-0.0919-0.7071-0.0000 ( 10632 PWs)   bands (ev):

   -47.9543 -20.0529 -20.0428 -20.0426 -11.5028  -0.8808   0.0767   0.1057
     8.1971   8.7246  11.5352  14.1831  15.1816  16.1305  17.0762  17.1618
    17.7672  22.2425  23.5405  23.8230

          k =-0.0990-0.7071 0.0000 ( 10632 PWs)   bands (ev):

   -47.9543 -20.0528 -20.0428 -20.0426 -11.5025  -0.8753   0.0683   0.1021
     8.2199   8.7450  11.5154  14.0937  15.1917  16.1637  17.0633  17.1630
    17.8272  22.1929  23.5241  23.7774

          k =-0.1061-0.7071-0.0000 ( 10636 PWs)   bands (ev):

   -47.9543 -20.0527 -20.0429 -20.0427 -11.5021  -0.8693   0.0595   0.0982
     8.2442   8.7668  11.4943  14.0042  15.2024  16.1942  17.0492  17.1643
    17.8900  22.1447  23.5070  23.7302

          k =-0.1131-0.7071-0.0000 ( 10644 PWs)   bands (ev):

   -47.9543 -20.0526 -20.0430 -20.0427 -11.5017  -0.8629   0.0501   0.0942
     8.2700   8.7900  11.4719  13.9147  15.2139  16.2221  17.0340  17.1656
    17.9554  22.0984  23.4893  23.6818

          k =-0.1202-0.7071 0.0000 ( 10644 PWs)   bands (ev):

   -47.9543 -20.0525 -20.0431 -20.0428 -11.5013  -0.8561   0.0402   0.0901
     8.2972   8.8145  11.4481  13.8253  15.2262  16.2477  17.0177  17.1670
    18.0229  22.0541  23.4711  23.6322

          k =-0.1273-0.7071 0.0000 ( 10640 PWs)   bands (ev):

   -47.9543 -20.0524 -20.0432 -20.0428 -11.5009  -0.8489   0.0298   0.0857
     8.3258   8.8403  11.4230  13.7361  15.2392  16.2712  17.0003  17.1684
    18.0921  22.0119  23.4525  23.5817

          k =-0.1344-0.7071 0.0000 ( 10640 PWs)   bands (ev):

   -47.9543 -20.0523 -20.0432 -20.0429 -11.5004  -0.8414   0.0189   0.0813
     8.3557   8.8673  11.3967  13.6473  15.2529  16.2928  16.9817  17.1699
    18.1627  21.9722  23.4336  23.5304

          k =-0.1414-0.7071-0.0000 ( 10640 PWs)   bands (ev):

   -47.9543 -20.0522 -20.0433 -20.0429 -11.5000  -0.8335   0.0076   0.0768
     8.3868   8.8957  11.3692  13.5589  15.2674  16.3126  16.9620  17.1714
    18.2344  21.9349  23.4145  23.4785

          k =-0.1485-0.7071 0.0000 ( 10640 PWs)   bands (ev):

   -47.9543 -20.0521 -20.0434 -20.0430 -11.4995  -0.8252  -0.0042   0.0722
     8.4192   8.9252  11.3404  13.4710  15.2827  16.3308  16.9412  17.1729
    18.3068  21.9003  23.3953  23.4260

          k =-0.1556-0.7071 0.0000 ( 10640 PWs)   bands (ev):

   -47.9543 -20.0520 -20.0436 -20.0430 -11.4991  -0.8165  -0.0164   0.0675
     8.4527   8.9559  11.3105  13.3838  15.2986  16.3476  16.9192  17.1745
    18.3796  21.8684  23.3731  23.3759

          k =-0.1626-0.7071 0.0000 ( 10644 PWs)   bands (ev):

   -47.9543 -20.0519 -20.0437 -20.0431 -11.4986  -0.8074  -0.0290   0.0628
     8.4873   8.9878  11.2795  13.2973  15.3153  16.3632  16.8962  17.1761
    18.4524  21.8393  23.3200  23.3566

          k =-0.1697-0.7071 0.0000 ( 10644 PWs)   bands (ev):

   -47.9543 -20.0518 -20.0438 -20.0432 -11.4981  -0.7980  -0.0419   0.0580
     8.5229   9.0208  11.2473  13.2117  15.3328  16.3776  16.8720  17.1777
    18.5251  21.8130  23.2666  23.3374

          k =-0.1768-0.7071 0.0000 ( 10640 PWs)   bands (ev):

   -47.9543 -20.0517 -20.0439 -20.0432 -11.4976  -0.7882  -0.0553   0.0532
     8.5594   9.0549  11.2141  13.1269  15.3510  16.3909  16.8468  17.1793
    18.5972  21.7896  23.2132  23.3184

          k =-0.1838-0.7071 0.0000 ( 10644 PWs)   bands (ev):

   -47.9543 -20.0516 -20.0440 -20.0433 -11.4972  -0.7781  -0.0689   0.0485
     8.5968   9.0901  11.1798  13.0432  15.3699  16.4033  16.8206  17.1810
    18.6686  21.7690  23.1597  23.2996

          k =-0.1909-0.7071 0.0000 ( 10644 PWs)   bands (ev):

   -47.9543 -20.0514 -20.0442 -20.0433 -11.4967  -0.7677  -0.0829   0.0438
     8.6349   9.1262  11.1445  12.9607  15.3895  16.4149  16.7934  17.1826
    18.7390  21.7513  23.1063  23.2810

          k =-0.1980-0.7071 0.0000 ( 10634 PWs)   bands (ev):

   -47.9543 -20.0513 -20.0443 -20.0434 -11.4962  -0.7569  -0.0972   0.0391
     8.6736   9.1633  11.1082  12.8793  15.4099  16.4257  16.7652  17.1842
    18.8082  21.7365  23.0531  23.2629

          k =-0.2051-0.7071 0.0000 ( 10630 PWs)   bands (ev):

   -47.9543 -20.0512 -20.0444 -20.0434 -11.4957  -0.7457  -0.1118   0.0345
     8.7128   9.2014  11.0710  12.7994  15.4310  16.4357  16.7362  17.1858
    18.8759  21.7246  23.0001  23.2451

          k =-0.2121-0.7071 0.0000 ( 10634 PWs)   bands (ev):

   -47.9543 -20.0510 -20.0446 -20.0435 -11.4953  -0.7343  -0.1267   0.0300
     8.7525   9.2403  11.0329  12.7209  15.4529  16.4451  16.7063  17.1873
    18.9418  21.7155  22.9473  23.2279

          k =-0.2192-0.7071 0.0000 ( 10636 PWs)   bands (ev):

   -47.9543 -20.0509 -20.0447 -20.0436 -11.4948  -0.7225  -0.1418   0.0255
     8.7924   9.2801  10.9939  12.6440  15.4754  16.4539  16.6756  17.1889
    19.0059  21.7092  22.8949  23.2111

          k =-0.2263-0.7071 0.0000 ( 10634 PWs)   bands (ev):

   -47.9543 -20.0507 -20.0448 -20.0436 -11.4944  -0.7104  -0.1571   0.0212
     8.8324   9.3207  10.9541  12.5689  15.4987  16.4621  16.6442  17.1904
    19.0679  21.7056  22.8429  23.1950

          k =-0.2333-0.7071 0.0000 ( 10630 PWs)   bands (ev):

   -47.9543 -20.0506 -20.0450 -20.0437 -11.4940  -0.6980  -0.1726   0.0171
     8.8725   9.3621  10.9135  12.4958  15.5226  16.4697  16.6122  17.1918
    19.1276  21.7047  22.7914  23.1794

          k =-0.2404-0.7071 0.0000 ( 10630 PWs)   bands (ev):

   -47.9543 -20.0504 -20.0451 -20.0437 -11.4936  -0.6853  -0.1883   0.0130
     8.9123   9.4042  10.8721  12.4248  15.5473  16.4768  16.5795  17.1932
    19.1848  21.7064  22.7403  23.1646

          k =-0.2475-0.7071 0.0000 ( 10640 PWs)   bands (ev):

   -47.9543 -20.0503 -20.0453 -20.0438 -11.4932  -0.6723  -0.2042   0.0092
     8.9517   9.4470  10.8300  12.3560  15.5726  16.4835  16.5463  17.1946
    19.2393  21.7108  22.6898  23.1504

          k =-0.2546-0.7071-0.0000 ( 10632 PWs)   bands (ev):

   -47.9543 -20.0501 -20.0454 -20.0438 -11.4928  -0.6590  -0.2202   0.0055
     8.9905   9.4904  10.7873  12.2898  15.5986  16.4896  16.5126  17.1959
    19.2911  21.7176  22.6400  23.1370

          k =-0.2616-0.7071 0.0000 ( 10634 PWs)   bands (ev):

   -47.9543 -20.0500 -20.0456 -20.0438 -11.4924  -0.6455  -0.2364   0.0020
     9.0285   9.5344  10.7439  12.2262  15.6253  16.4785  16.4953  17.1971
    19.3398  21.7269  22.5908  23.1243

          k =-0.2687-0.7071-0.0000 ( 10646 PWs)   bands (ev):

   -47.9543 -20.0498 -20.0458 -20.0439 -11.4921  -0.6317  -0.2526  -0.0013
     9.0655   9.5790  10.6999  12.1657  15.6527  16.4440  16.5005  17.1983
    19.3855  21.7385  22.5423  23.1125

          k =-0.2758-0.7071 0.0000 ( 10650 PWs)   bands (ev):

   -47.9543 -20.0496 -20.0459 -20.0439 -11.4918  -0.6176  -0.2690  -0.0043
     9.1011   9.6241  10.6554  12.1083  15.6807  16.4093  16.5053  17.1994
    19.4280  21.7524  22.4946  23.1015

          k =-0.2828-0.7071 0.0000 ( 10650 PWs)   bands (ev):

   -47.9543 -20.0495 -20.0461 -20.0440 -11.4915  -0.6034  -0.2854  -0.0072
     9.1352   9.6697  10.6103  12.0545  15.7093  16.3744  16.5096  17.2004
    19.4671  21.7686  22.4478  23.0914

          k =-0.2899-0.7071 0.0000 ( 10658 PWs)   bands (ev):

   -47.9543 -20.0493 -20.0462 -20.0440 -11.4912  -0.5888  -0.3019  -0.0098
     9.1673   9.7157  10.5648  12.0044  15.7385  16.3393  16.5135  17.2013
    19.5028  21.7868  22.4018  23.0821

          k =-0.2970-0.7071 0.0000 ( 10660 PWs)   bands (ev):

   -47.9543 -20.0492 -20.0464 -20.0440 -11.4910  -0.5741  -0.3184  -0.0121
     9.1972   9.7621  10.5189  11.9584  15.7683  16.3040  16.5170  17.2022
    19.5350  21.8072  22.3567  23.0738

          k =-0.3041-0.7071-0.0000 ( 10660 PWs)   bands (ev):

   -47.9543 -20.0490 -20.0466 -20.0441 -11.4908  -0.5591  -0.3349  -0.0142
     9.2246   9.8088  10.4726  11.9169  15.7987  16.2688  16.5201  17.2029
    19.5635  21.8296  22.3126  23.0664

          k =-0.3111-0.7071 0.0000 ( 10660 PWs)   bands (ev):

   -47.9543 -20.0488 -20.0468 -20.0441 -11.4906  -0.5440  -0.3514  -0.0160
     9.2492   9.8558  10.4259  11.8801  15.8297  16.2336  16.5228  17.2036
    19.5884  21.8538  22.2695  23.0600

          k =-0.3182-0.7071-0.0000 ( 10658 PWs)   bands (ev):

   -47.9543 -20.0486 -20.0469 -20.0441 -11.4904  -0.5287  -0.3679  -0.0176
     9.2707   9.9030  10.3790  11.8483  15.8611  16.1984  16.5250  17.2042
    19.6095  21.8799  22.2275  23.0545

          k =-0.3253-0.7071 0.0000 ( 10662 PWs)   bands (ev):

   -47.9543 -20.0485 -20.0471 -20.0441 -11.4903  -0.5132  -0.3844  -0.0189
     9.2887   9.9505  10.3318  11.8218  15.8931  16.1634  16.5269  17.2046
    19.6269  21.9078  22.1866  23.0500

          k =-0.3323-0.7071 0.0000 ( 10666 PWs)   bands (ev):

   -47.9543 -20.0483 -20.0473 -20.0441 -11.4902  -0.4975  -0.4008  -0.0199
     9.3030   9.9981  10.2843  11.8009  15.9256  16.1286  16.5283  17.2050
    19.6404  21.9374  22.1470  23.0465

          k =-0.3394-0.7071 0.0000 ( 10662 PWs)   bands (ev):

   -47.9543 -20.0481 -20.0474 -20.0441 -11.4901  -0.4817  -0.4172  -0.0206
     9.3133  10.0458  10.2368  11.7858  15.9585  16.0939  16.5293  17.2053
    19.6501  21.9686  22.1086  23.0440

          k =-0.3465-0.7071 0.0000 ( 10642 PWs)   bands (ev):

   -47.9543 -20.0480 -20.0476 -20.0441 -11.4900  -0.4657  -0.4334  -0.0210
     9.3197  10.0935  10.1891  11.7767  15.9918  16.0596  16.5299  17.2054
    19.6559  22.0014  22.0715  23.0425

          k =-0.3536-0.7071 0.0000 ( 10640 PWs)   bands (ev):

   -47.9543 -20.0478 -20.0478 -20.0441 -11.4900  -0.4496  -0.4496  -0.0212
     9.3218  10.1413  10.1413  11.7736  16.0255  16.0255  16.5301  17.2055
    19.6578  22.0357  22.0357  23.0420

          k =-0.3606-0.6930 0.0000 ( 10662 PWs)   bands (ev):

   -47.9543 -20.0479 -20.0477 -20.0441 -11.4902  -0.4650  -0.4361  -0.0180
     9.3219  10.0873  10.1893  11.7841  15.9515  16.0432  16.5724  17.2227
    19.6545  21.9875  22.0520  23.0355

          k =-0.3677-0.6788 0.0000 ( 10656 PWs)   bands (ev):

   -47.9543 -20.0481 -20.0477 -20.0438 -11.4905  -0.4788  -0.4282  -0.0085
     9.3218  10.0237  10.2374  11.8140  15.8237  16.0298  16.6728  17.2727
    19.6442  21.9171  22.0325  23.0116

          k =-0.3748-0.6647 0.0000 ( 10656 PWs)   bands (ev):

   -47.9543 -20.0482 -20.0479 -20.0435 -11.4911  -0.4909  -0.4259   0.0072
     9.3204   9.9553  10.2851  11.8602  15.6725  15.9909  16.8008  17.3497
    19.6270  21.8304  21.9826  22.9678

          k =-0.3818-0.6505 0.0000 ( 10646 PWs)   bands (ev):

   -47.9543 -20.0483 -20.0481 -20.0431 -11.4919  -0.5015  -0.4287   0.0280
     9.3162   9.8873  10.3320  11.9196  15.5116  15.9337  16.9427  17.4462
    19.6032  21.7317  21.9090  22.9064

          k =-0.3889-0.6364-0.0000 ( 10640 PWs)   bands (ev):

   -47.9543 -20.0484 -20.0484 -20.0427 -11.4928  -0.5103  -0.4355   0.0528
     9.3072   9.8249  10.3775  11.9896  15.3468  15.8645  17.0923  17.5555
    19.5735  21.6247  21.8185  22.8325

          k =-0.3960-0.6223 0.0000 ( 10640 PWs)   bands (ev):

   -47.9543 -20.0487 -20.0485 -20.0423 -11.4938  -0.5175  -0.4454   0.0802
     9.2910   9.7730  10.4209  12.0676  15.1815  15.7882  17.2462  17.6723
    19.5384  21.5121  21.7170  22.7515

          k =-0.4031-0.6081-0.0000 ( 10629 PWs)   bands (ev):

   -47.9544 -20.0490 -20.0485 -20.0418 -11.4950  -0.5229  -0.4574   0.1089
     9.2664   9.7349  10.4619  12.1516  15.0178  15.7081  17.4018  17.7924
    19.4991  21.3967  21.6091  22.6681

          k =-0.4101-0.5940 0.0000 ( 10627 PWs)   bands (ev):

   -47.9544 -20.0493 -20.0485 -20.0414 -11.4961  -0.5266  -0.4708   0.1378
     9.2338   9.7116  10.4996  12.2395  14.8576  15.6267  17.5568  17.9130
    19.4568  21.2810  21.4983  22.5859

          k =-0.4172-0.5798-0.0000 ( 10618 PWs)   bands (ev):

   -47.9544 -20.0496 -20.0486 -20.0410 -11.4974  -0.5286  -0.4850   0.1661
     9.1959   9.7016  10.5335  12.3294  14.7030  15.5457  17.7088  18.0314
    19.4131  21.1670  21.3873  22.5078

          k =-0.4243-0.5657 0.0000 ( 10614 PWs)   bands (ev):

   -47.9544 -20.0499 -20.0485 -20.0406 -11.4986  -0.5289  -0.4994   0.1929
     9.1564   9.7020  10.5629  12.4189  14.5562  15.4666  17.8550  18.1453
    19.3701  21.0569  21.2782  22.4360

          k =-0.4313-0.5515 0.0000 ( 10618 PWs)   bands (ev):

   -47.9544 -20.0502 -20.0485 -20.0403 -11.4998  -0.5274  -0.5139   0.2176
     9.1188   9.7097  10.5871  12.5054  14.4202  15.3902  17.9917  18.2528
    19.3307  20.9526  21.1725  22.3724

          k =-0.4384-0.5374-0.0000 ( 10626 PWs)   bands (ev):

   -47.9544 -20.0504 -20.0485 -20.0400 -11.5010  -0.5280  -0.5242   0.2398
     9.0861   9.7223  10.6056  12.5852  14.2988  15.3175  18.1142  18.3516
    19.2990  20.8558  21.0714  22.3185

          k =-0.4455-0.5233 0.0000 ( 10621 PWs)   bands (ev):

   -47.9544 -20.0507 -20.0484 -20.0397 -11.5021  -0.5416  -0.5193   0.2590
     9.0602   9.7375  10.6176  12.6539  14.1968  15.2491  18.2163  18.4400
    19.2803  20.7681  20.9757  22.2759

          k =-0.4525-0.5091-0.0000 ( 10623 PWs)   bands (ev):

   -47.9544 -20.0509 -20.0483 -20.0395 -11.5032  -0.5545  -0.5127   0.2749
     9.0427   9.7537  10.6227  12.7060  14.1203  15.1856  18.2913  18.5162
    19.2803  20.6908  20.8864  22.2458

          k =-0.4596-0.4950 0.0000 ( 10613 PWs)   bands (ev):

   -47.9544 -20.0511 -20.0482 -20.0393 -11.5043  -0.5666  -0.5045   0.2872
     9.0345   9.7696  10.6204  12.7362  14.0751  15.1276  18.3342  18.5785
    19.3033  20.6248  20.8038  22.2294

          k =-0.4667-0.4808 0.0000 ( 10623 PWs)   bands (ev):

   -47.9544 -20.0513 -20.0481 -20.0392 -11.5052  -0.5780  -0.4946   0.2960
     9.0363   9.7837  10.6103  12.7413  14.0651  15.0752  18.3443  18.6260
    19.3489  20.5709  20.7285  22.2277

          k =-0.4738-0.4667 0.0000 ( 10623 PWs)   bands (ev):

   -47.9544 -20.0514 -20.0479 -20.0391 -11.5061  -0.5884  -0.4832   0.3010
     9.0485   9.7949  10.5922  12.7221  14.0902  15.0288  18.3259  18.6580
    19.4118  20.5295  20.6608  22.2412

          k =-0.4808-0.4525 0.0000 ( 10615 PWs)   bands (ev):

   -47.9544 -20.0516 -20.0478 -20.0391 -11.5069  -0.5980  -0.4702   0.3025
     9.0712   9.8020  10.5659  12.6838  14.1461  14.9884  18.2856  18.6745
    19.4844  20.5006  20.6011  22.2701

          k =-0.4879-0.4384 0.0000 ( 10623 PWs)   bands (ev):

   -47.9544 -20.0517 -20.0476 -20.0391 -11.5076  -0.6068  -0.4557   0.3004
     9.1045   9.8037  10.5315  12.6335  14.2266  14.9541  18.2297  18.6763
    19.5596  20.4840  20.5496  22.3139

          k =-0.4950-0.4243 0.0000 ( 10629 PWs)   bands (ev):

   -47.9544 -20.0518 -20.0475 -20.0392 -11.5083  -0.6147  -0.4398   0.2951
     9.1481   9.7989  10.4893  12.5783  14.3255  14.9256  18.1628  18.6646
    19.6319  20.4793  20.5067  22.3717

          k =-0.5020-0.4101-0.0000 ( 10615 PWs)   bands (ev):

   -47.9544 -20.0518 -20.0473 -20.0392 -11.5088  -0.6220  -0.4226   0.2867
     9.2018   9.7868  10.4394  12.5240  14.4377  14.9028  18.0883  18.6407
    19.6973  20.4724  20.4863  22.4423

          k =-0.5091-0.3960 0.0000 ( 10635 PWs)   bands (ev):

   -47.9544 -20.0519 -20.0471 -20.0394 -11.5092  -0.6287  -0.4040   0.2757
     9.2649   9.7666  10.3824  12.4751  14.5594  14.8853  18.0086  18.6064
    19.7529  20.4471  20.5046  22.5240

          k =-0.5162-0.3818 0.0000 ( 10633 PWs)   bands (ev):

   -47.9544 -20.0519 -20.0469 -20.0395 -11.5096  -0.6350  -0.3842   0.2624
     9.3363   9.7384  10.3187  12.4349  14.6877  14.8728  17.9253  18.5631
    19.7968  20.4311  20.5341  22.6147

          k =-0.5233-0.3677 0.0000 ( 10628 PWs)   bands (ev):

   -47.9544 -20.0519 -20.0466 -20.0397 -11.5098  -0.6409  -0.3634   0.2473
     9.4138   9.7036  10.2492  12.4054  14.8205  14.8647  17.8395  18.5125
    19.8277  20.4246  20.5748  22.7125

          k =-0.5303-0.3536 0.0000 ( 10637 PWs)   bands (ev):

   -47.9544 -20.0518 -20.0464 -20.0399 -11.5100  -0.6468  -0.3415   0.2309
     9.4893   9.6695  10.1744  12.3881  14.8607  14.9561  17.7523  18.4558
    19.8448  20.4279  20.6265  22.8152

          k =-0.5374-0.3394-0.0000 ( 10628 PWs)   bands (ev):

   -47.9544 -20.0518 -20.0462 -20.0402 -11.5101  -0.6529  -0.3186   0.2137
     9.5251   9.6738  10.0952  12.3837  14.8603  15.0932  17.6643  18.3942
    19.8477  20.4412  20.6894  22.9207

          k =-0.5445-0.3253 0.0000 ( 10634 PWs)   bands (ev):

   -47.9544 -20.0518 -20.0460 -20.0404 -11.5101  -0.6592  -0.2950   0.1962
     9.4886   9.7491  10.0123  12.3925  14.8630  15.2303  17.5761  18.3288
    19.8362  20.4647  20.7633  23.0269

          k =-0.5515-0.3111 0.0000 ( 10642 PWs)   bands (ev):

   -47.9544 -20.0517 -20.0457 -20.0407 -11.5101  -0.6662  -0.2707   0.1789
     9.4234   9.8517   9.9265  12.4142  14.8683  15.3666  17.4884  18.2605
    19.8106  20.4983  20.8482  23.1317

          k =-0.5586-0.2970-0.0000 ( 10642 PWs)   bands (ev):

   -47.9544 -20.0517 -20.0455 -20.0409 -11.5100  -0.6739  -0.2458   0.1623
     9.3472   9.8386   9.9643  12.4485  14.8759  15.5008  17.4017  18.1901
    19.7708  20.5422  20.9439  23.2334

          k =-0.5657-0.2828-0.0000 ( 10660 PWs)   bands (ev):

   -47.9544 -20.0517 -20.0452 -20.0412 -11.5099  -0.6826  -0.2205   0.1469
     9.2647   9.7493  10.0824  12.4951  14.8855  15.6319  17.3164  18.1183
    19.7172  20.5964  21.0501  23.3302

          k =-0.5728-0.2687 0.0000 ( 10649 PWs)   bands (ev):

   -47.9544 -20.0516 -20.0450 -20.0414 -11.5097  -0.6924  -0.1949   0.1331
     9.1781   9.6595  10.2039  12.5534  14.8967  15.7588  17.2334  18.0458
    19.6498  20.6608  21.1665  23.4208

          k =-0.5798-0.2546 0.0000 ( 10636 PWs)   bands (ev):

   -47.9544 -20.0516 -20.0448 -20.0417 -11.5094  -0.7035  -0.1692   0.1211
     9.0889   9.5698  10.3272  12.6231  14.9092  15.8803  17.1532  17.9731
    19.5690  20.7355  21.2925  23.5038

          k =-0.5869-0.2404 0.0000 ( 10624 PWs)   bands (ev):

   -47.9544 -20.0516 -20.0445 -20.0419 -11.5092  -0.7157  -0.1435   0.1112
     8.9987   9.4810  10.4508  12.7040  14.9227  15.9947  17.0770  17.9010
    19.4750  20.8204  21.4277  23.5785

          k =-0.5940-0.2263-0.0000 ( 10620 PWs)   bands (ev):

   -47.9544 -20.0516 -20.0443 -20.0421 -11.5089  -0.7291  -0.1180   0.1034
     8.9084   9.3936  10.5735  12.7958  14.9371  16.1000  17.0063  17.8297
    19.3681  20.9153  21.5714  23.6445

          k =-0.6010-0.2121-0.0000 ( 10630 PWs)   bands (ev):

   -47.9544 -20.0517 -20.0441 -20.0422 -11.5086  -0.7436  -0.0929   0.0979
     8.8193   9.3084  10.6938  12.8984  14.9521  16.1933  16.9437  17.7599
    19.2489  21.0198  21.7229  23.7017

          k =-0.6081-0.1980 0.0000 ( 10628 PWs)   bands (ev):

   -47.9544 -20.0518 -20.0439 -20.0424 -11.5083  -0.7589  -0.0683   0.0945
     8.7320   9.2258  10.8104  13.0116  14.9675  16.2699  16.8933  17.6920
    19.1182  21.1335  21.8815  23.7505

          k =-0.6152-0.1838 0.0000 ( 10633 PWs)   bands (ev):

   -47.9544 -20.0519 -20.0437 -20.0425 -11.5079  -0.7749  -0.0444   0.0930
     8.6476   9.1464  10.9221  13.1353  14.9831  16.3236  16.8611  17.6264
    18.9769  21.2558  22.0460  23.7393

          k =-0.6223-0.1697 0.0000 ( 10643 PWs)   bands (ev):

   -47.9544 -20.0520 -20.0435 -20.0425 -11.5076  -0.7912  -0.0213   0.0932
     8.5667   9.0708  11.0280  13.2691  14.9988  16.3477  16.8531  17.5635
    18.8264  21.3857  22.2155  23.6723

          k =-0.6293-0.1556-0.0000 ( 10647 PWs)   bands (ev):

   -47.9544 -20.0521 -20.0433 -20.0426 -11.5073  -0.8076   0.0007   0.0949
     8.4900   8.9994  11.1270  13.4127  15.0144  16.3414  16.8698  17.5037
    18.6684  21.5222  22.3886  23.6224

          k =-0.6364-0.1414 0.0000 ( 10646 PWs)   bands (ev):

   -47.9544 -20.0523 -20.0432 -20.0426 -11.5070  -0.8237   0.0215   0.0978
     8.4180   8.9327  11.2186  13.5652  15.0296  16.3109  16.9041  17.4474
    18.5050  21.6637  22.5635  23.5898

          k =-0.6435-0.1273-0.0000 ( 10642 PWs)   bands (ev):

   -47.9544 -20.0524 -20.0430 -20.0426 -11.5067  -0.8392   0.0409   0.1015
     8.3513   8.8711  11.3021  13.7260  15.0443  16.2644  16.9471  17.3950
    18.3386  21.8087  22.7384  23.5740

          k =-0.6505-0.1131 0.0000 ( 10638 PWs)   bands (ev):

   -47.9544 -20.0526 -20.0429 -20.0425 -11.5064  -0.8539   0.0587   0.1058
     8.2904   8.8149  11.3772  13.8937  15.0583  16.2075  16.9922  17.3469
    18.1722  21.9548  22.9103  23.5744

          k =-0.6576-0.0990 0.0000 ( 10626 PWs)   bands (ev):

   -47.9543 -20.0527 -20.0427 -20.0425 -11.5061  -0.8675   0.0749   0.1103
     8.2357   8.7645  11.4437  14.0671  15.0713  16.1428  17.0352  17.3034
    18.0094  22.0996  23.0758  23.5891

          k =-0.6647-0.0849 0.0000 ( 10620 PWs)   bands (ev):

   -47.9543 -20.0529 -20.0426 -20.0425 -11.5059  -0.8798   0.0892   0.1149
     8.1876   8.7202  11.5014  14.2444  15.0831  16.0709  17.0738  17.2649
    17.8545  22.2399  23.2300  23.6149

          k =-0.6718-0.0707 0.0000 ( 10620 PWs)   bands (ev):

   -47.9543 -20.0530 -20.0425 -20.0424 -11.5057  -0.8905   0.1015   0.1191
     8.1463   8.6823  11.5503  14.4234  15.0935  15.9913  17.1061  17.2317
    17.7125  22.3724  23.3667  23.6455

          k =-0.6788-0.0566 0.0000 ( 10626 PWs)   bands (ev):

   -47.9543 -20.0531 -20.0424 -20.0424 -11.5055  -0.8996   0.1118   0.1229
     8.1121   8.6509  11.5903  14.6011  15.1024  15.9029  17.1310  17.2041
    17.5890  22.4931  23.4792  23.6712

          k =-0.6859-0.0424 0.0000 ( 10628 PWs)   bands (ev):

   -47.9543 -20.0532 -20.0424 -20.0423 -11.5054  -0.9067   0.1199   0.1261
     8.0853   8.6263  11.6214  14.7735  15.1095  15.8057  17.1472  17.1823
    17.4900  22.5973  23.5627  23.6816

          k =-0.6930-0.0283 0.0000 ( 10618 PWs)   bands (ev):

   -47.9543 -20.0533 -20.0423 -20.0423 -11.5053  -0.9119   0.1257   0.1284
     8.0661   8.6086  11.6436  14.9330  15.1147  15.7031  17.1543  17.1666
    17.4202  22.6795  23.6171  23.6751

          k =-0.7000-0.0141 0.0000 ( 10598 PWs)   bands (ev):

   -47.9543 -20.0533 -20.0423 -20.0423 -11.5052  -0.9151   0.1292   0.1299
     8.0545   8.5980  11.6569  15.0625  15.1179  15.6091  17.1548  17.1571
    17.3808  22.7329  23.6467  23.6622

          k =-0.7071 0.0000 0.0000 ( 10574 PWs)   bands (ev):

   -47.9543 -20.0533 -20.0423 -20.0423 -11.5052  -0.9161   0.1304   0.1304
     8.0506   8.5944  11.6613  15.1190  15.1190  15.5647  17.1539  17.1539
    17.3684  22.7516  23.6560  23.6560

          k =-0.6930 0.0000 0.0000 ( 10598 PWs)   bands (ev):

   -47.9543 -20.0533 -20.0423 -20.0423 -11.5055  -0.9152   0.1309   0.1309
     8.0519   8.5961  11.6557  15.1088  15.1088  15.5618  17.1657  17.1657
    17.3782  22.7576  23.6318  23.6318

          k =-0.6788 0.0000 0.0000 ( 10606 PWs)   bands (ev):

   -47.9543 -20.0533 -20.0423 -20.0423 -11.5065  -0.9127   0.1324   0.1324
     8.0559   8.6012  11.6391  15.0791  15.0791  15.5534  17.2006  17.2006
    17.4072  22.7756  23.5622  23.5622

          k =-0.6647 0.0000 0.0000 ( 10630 PWs)   bands (ev):

   -47.9543 -20.0532 -20.0422 -20.0422 -11.5081  -0.9084   0.1350   0.1350
     8.0624   8.6096  11.6120  15.0317  15.0317  15.5394  17.2566  17.2566
    17.4552  22.8055  23.4543  23.4543

          k =-0.6505 0.0000 0.0000 ( 10638 PWs)   bands (ev):

   -47.9544 -20.0531 -20.0422 -20.0422 -11.5103  -0.9023   0.1385   0.1385
     8.0711   8.6215  11.5753  14.9692  14.9692  15.5201  17.3310  17.3310
    17.5214  22.8471  23.3171  23.3171

          k =-0.6364 0.0000 0.0000 ( 10642 PWs)   bands (ev):

   -47.9544 -20.0530 -20.0421 -20.0421 -11.5131  -0.8945   0.1430   0.1430
     8.0818   8.6367  11.5301  14.8945  14.8945  15.4956  17.4210  17.4210
    17.6049  22.9001  23.1590  23.1590

          k =-0.6223 0.0000 0.0000 ( 10634 PWs)   bands (ev):

   -47.9544 -20.0529 -20.0420 -20.0420 -11.5166  -0.8849   0.1486   0.1486
     8.0939   8.6552  11.4780  14.8100  14.8100  15.4663  17.5237  17.5237
    17.7046  22.9643  22.9869  22.9869

          k =-0.6081 0.0000 0.0000 ( 10642 PWs)   bands (ev):

   -47.9544 -20.0528 -20.0419 -20.0419 -11.5206  -0.8735   0.1551   0.1551
     8.1069   8.6771  11.4204  14.7182  14.7182  15.4324  17.6367  17.6367
    17.8193  22.8061  22.8061  23.0393

          k =-0.5940 0.0000 0.0000 ( 10634 PWs)   bands (ev):

   -47.9544 -20.0526 -20.0418 -20.0418 -11.5253  -0.8603   0.1625   0.1625
     8.1201   8.7024  11.3591  14.6208  14.6208  15.3943  17.7580  17.7580
    17.9480  22.6208  22.6208  23.1244

          k =-0.5798 0.0000 0.0000 ( 10642 PWs)   bands (ev):

   -47.9544 -20.0524 -20.0417 -20.0417 -11.5305  -0.8452   0.1709   0.1709
     8.1326   8.7309  11.2960  14.5194  14.5194  15.3523  17.8855  17.8855
    18.0894  22.4339  22.4339  22.9385

          k =-0.5657 0.0000 0.0000 ( 10638 PWs)   bands (ev):

   -47.9544 -20.0522 -20.0416 -20.0416 -11.5363  -0.8282   0.1802   0.1802
     8.1436   8.7629  11.2329  14.4151  14.4151  15.3069  18.0178  18.0178
    18.2422  22.2481  22.2481  22.7525

          k =-0.5515 0.0000 0.0000 ( 10634 PWs)   bands (ev):

   -47.9544 -20.0520 -20.0414 -20.0414 -11.5427  -0.8093   0.1904   0.1904
     8.1520   8.7981  11.1718  14.3089  14.3089  15.2584  18.1534  18.1534
    18.4054  22.0655  22.0655  22.5671

          k =-0.5374 0.0000 0.0000 ( 10638 PWs)   bands (ev):

   -47.9545 -20.0517 -20.0413 -20.0413 -11.5496  -0.7885   0.2014   0.2014
     8.1565   8.8366  11.1146  14.2016  14.2016  15.2073  18.2905  18.2905
    18.5778  21.8879  21.8879  22.3829

          k =-0.5233 0.0000 0.0000 ( 10638 PWs)   bands (ev):

   -47.9545 -20.0514 -20.0411 -20.0411 -11.5570  -0.7657   0.2132   0.2132
     8.1561   8.8784  11.0632  14.0937  14.0937  15.1538  18.4277  18.4277
    18.7583  21.7174  21.7174  22.2007

          k =-0.5091 0.0000 0.0000 ( 10622 PWs)   bands (ev):

   -47.9545 -20.0511 -20.0409 -20.0409 -11.5649  -0.7408   0.2258   0.2258
     8.1494   8.9234  11.0196  13.9856  13.9856  15.0984  18.5629  18.5629
    18.9458  21.5561  21.5561  22.0209

          k =-0.4950 0.0000 0.0000 ( 10618 PWs)   bands (ev):

   -47.9545 -20.0508 -20.0408 -20.0408 -11.5733  -0.7140   0.2392   0.2392
     8.1352   8.9717  10.9854  13.8779  13.8779  15.0415  18.6936  18.6936
    19.1389  21.4067  21.4067  21.7912

          k =-0.4808 0.0000 0.0000 ( 10634 PWs)   bands (ev):

   -47.9546 -20.0504 -20.0406 -20.0406 -11.5822  -0.6851   0.2533   0.2533
     8.1127   9.0232  10.9620  13.7707  13.7707  14.9833  18.8168  18.8168
    19.3360  21.2724  21.2724  21.5422

          k =-0.4667 0.0000 0.0000 ( 10642 PWs)   bands (ev):

   -47.9546 -20.0500 -20.0404 -20.0404 -11.5915  -0.6542   0.2680   0.2680
     8.0810   9.0778  10.9505  13.6644  13.6644  14.9242  18.9283  18.9283
    19.5350  21.1575  21.1575  21.2910

          k =-0.4525 0.0000 0.0000 ( 10614 PWs)   bands (ev):

   -47.9546 -20.0496 -20.0401 -20.0401 -11.6011  -0.6212   0.2834   0.2834
     8.0397   9.1356  10.9518  13.5591  13.5591  14.8646  19.0231  19.0231
    19.7324  21.0386  21.0670  21.0670

          k =-0.4384 0.0000 0.0000 ( 10622 PWs)   bands (ev):

   -47.9546 -20.0492 -20.0399 -20.0399 -11.6112  -0.5862   0.2993   0.2993
     7.9887   9.1965  10.9660  13.4552  13.4552  14.8046  19.0953  19.0953
    19.9215  20.7858  21.0067  21.0067

          k =-0.4243 0.0000 0.0000 ( 10618 PWs)   bands (ev):

   -47.9547 -20.0487 -20.0397 -20.0397 -11.6215  -0.5491   0.3157   0.3157
     7.9282   9.2605  10.9933  13.3527  13.3527  14.7446  19.1399  19.1399
    20.0883  20.5332  20.9819  20.9819

          k =-0.4101 0.0000 0.0000 ( 10614 PWs)   bands (ev):

   -47.9547 -20.0482 -20.0395 -20.0395 -11.6321  -0.5101   0.3326   0.3326
     7.8588   9.3275  11.0332  13.2518  13.2518  14.6848  19.1537  19.1537
    20.2048  20.2814  20.9957  20.9957

          k =-0.3960 0.0000 0.0000 ( 10614 PWs)   bands (ev):

   -47.9547 -20.0477 -20.0393 -20.0393 -11.6430  -0.4692   0.3499   0.3499
     7.7813   9.3974  11.0851  13.1526  13.1526  14.6255  19.1374  19.1374
    20.0308  20.2355  21.0473  21.0473

          k =-0.3818 0.0000 0.0000 ( 10602 PWs)   bands (ev):

   -47.9547 -20.0472 -20.0390 -20.0390 -11.6541  -0.4263   0.3675   0.3675
     7.6964   9.4702  11.1480  13.0554  13.0554  14.5668  19.0952  19.0952
    19.7819  20.1817  21.1327  21.1327

          k =-0.3677 0.0000 0.0000 ( 10578 PWs)   bands (ev):

   -47.9548 -20.0466 -20.0388 -20.0388 -11.6654  -0.3817   0.3854   0.3854
     7.6053   9.5458  11.2212  12.9602  12.9602  14.5090  19.0328  19.0328
    19.5352  20.0786  21.2459  21.2459

          k =-0.3536 0.0000 0.0000 ( 10586 PWs)   bands (ev):

   -47.9548 -20.0461 -20.0386 -20.0386 -11.6768  -0.3353   0.4035   0.4035
     7.5090   9.6242  11.3035  12.8672  12.8672  14.4522  18.9562  18.9562
    19.2909  19.9529  21.3811  21.3811

          k =-0.3394 0.0000 0.0000 ( 10586 PWs)   bands (ev):

   -47.9548 -20.0455 -20.0383 -20.0383 -11.6882  -0.2872   0.4217   0.4217
     7.4083   9.7053  11.3941  12.7765  12.7765  14.3966  18.8703  18.8703
    19.0493  19.8175  21.5332  21.5332

          k =-0.3253 0.0000 0.0000 ( 10598 PWs)   bands (ev):

   -47.9549 -20.0449 -20.0381 -20.0381 -11.6997  -0.2377   0.4400   0.4400
     7.3043   9.7889  11.4918  12.6882  12.6882  14.3424  18.7789  18.7789
    18.8108  19.6782  21.6982  21.6982

          k =-0.3111 0.0000 0.0000 ( 10614 PWs)   bands (ev):

   -47.9549 -20.0443 -20.0379 -20.0379 -11.7112  -0.1868   0.4583   0.4583
     7.1978   9.8749  11.5958  12.6024  12.6024  14.2896  18.5757  18.6850
    18.6850  19.5380  21.8733  21.8733

          k =-0.2970 0.0000 0.0000 ( 10622 PWs)   bands (ev):

   -47.9549 -20.0436 -20.0376 -20.0376 -11.7226  -0.1347   0.4765   0.4765
     7.0897   9.9632  11.7053  12.5193  12.5193  14.2385  18.3442  18.5904
    18.5904  19.3984  22.0563  22.0563

          k =-0.2828 0.0000 0.0000 ( 10630 PWs)   bands (ev):

   -47.9549 -20.0430 -20.0374 -20.0374 -11.7339  -0.0815   0.4946   0.4946
     6.9807  10.0537  11.8192  12.4389  12.4389  14.1891  18.1167  18.4968
    18.4968  19.2603  22.2456  22.2456

          k =-0.2687 0.0000 0.0000 ( 10642 PWs)   bands (ev):

   -47.9550 -20.0424 -20.0372 -20.0372 -11.7450  -0.0275   0.5124   0.5124
     6.8715  10.1461  11.9368  12.3615  12.3615  14.1416  17.8934  18.4051
    18.4051  19.1245  22.4399  22.4399

          k =-0.2546 0.0000 0.0000 ( 10650 PWs)   bands (ev):

   -47.9550 -20.0418 -20.0370 -20.0370 -11.7559   0.0270   0.5300   0.5300
     6.7627  10.2403  12.0574  12.2871  12.2871  14.0960  17.6747  18.3162
    18.3162  18.9912  22.6383  22.6383

          k =-0.2404 0.0000 0.0000 ( 10641 PWs)   bands (ev):

   -47.9550 -20.0412 -20.0368 -20.0368 -11.7665   0.0820   0.5471   0.5471
     6.6552  10.3359  12.1800  12.2158  12.2158  14.0525  17.4608  18.2306
    18.2306  18.8608  22.8400  22.8400

          k =-0.2263 0.0000 0.0000 ( 10649 PWs)   bands (ev):

   -47.9550 -20.0406 -20.0366 -20.0366 -11.7769   0.1370   0.5638   0.5638
     6.5493  10.4328  12.1478  12.1478  12.3039  14.0110  17.2521  18.1489
    18.1489  18.7336  23.0444  23.0444

          k =-0.2121 0.0000 0.0000 ( 10649 PWs)   bands (ev):

   -47.9551 -20.0400 -20.0364 -20.0364 -11.7869   0.1917   0.5799   0.5799
     6.4458  10.5305  12.0833  12.0833  12.4284  13.9718  17.0492  18.0713
    18.0713  18.6098  23.2506  23.2506

          k =-0.1980 0.0000 0.0000 ( 10677 PWs)   bands (ev):

   -47.9551 -20.0394 -20.0362 -20.0362 -11.7964   0.2459   0.5955   0.5955
     6.3452  10.6287  12.0222  12.0222  12.5525  13.9348  16.8523  17.9980
    17.9980  18.4898  23.4583  23.4583

          k =-0.1838 0.0000 0.0000 ( 10669 PWs)   bands (ev):

   -47.9551 -20.0388 -20.0360 -20.0360 -11.8056   0.2991   0.6103   0.6103
     6.2480  10.7268  11.9647  11.9647  12.6754  13.9001  16.6620  17.9294
    17.9294  18.3739  23.6669  23.6669

          k =-0.1697 0.0000 0.0000 ( 10681 PWs)   bands (ev):

   -47.9551 -20.0383 -20.0359 -20.0359 -11.8142   0.3510   0.6244   0.6244
     6.1549  10.8244  11.9110  11.9110  12.7963  13.8678  16.4790  17.8655
    17.8655  18.2623  23.8756  23.8756

          k =-0.1556 0.0000 0.0000 ( 10677 PWs)   bands (ev):

   -47.9552 -20.0378 -20.0357 -20.0357 -11.8223   0.4012   0.6377   0.6377
     6.0663  10.9208  11.8611  11.8611  12.9141  13.8379  16.3039  17.8064
    17.8064  18.1555  24.0839  24.0839

          k =-0.1414 0.0000 0.0000 ( 10677 PWs)   bands (ev):

   -47.9552 -20.0373 -20.0356 -20.0356 -11.8298   0.4492   0.6500   0.6500
     5.9829  11.0152  11.8152  11.8152  13.0278  13.8104  16.1375  17.7523
    17.7523  18.0540  24.2909  24.2909

          k =-0.1273 0.0000 0.0000 ( 10693 PWs)   bands (ev):

   -47.9552 -20.0369 -20.0354 -20.0354 -11.8368   0.4945   0.6614   0.6614
     5.9053  11.1068  11.7734  11.7734  13.1364  13.7855  15.9808  17.7032
    17.7032  17.9583  24.3832  24.4958

          k =-0.1131 0.0000 0.0000 ( 10693 PWs)   bands (ev):

   -47.9552 -20.0365 -20.0353 -20.0353 -11.8431   0.5368   0.6717   0.6717
     5.8339  11.1944  11.7357  11.7357  13.2386  13.7631  15.8348  17.6592
    17.6592  17.8692  24.3449  24.6974

          k =-0.0990 0.0000 0.0000 ( 10693 PWs)   bands (ev):

   -47.9552 -20.0361 -20.0352 -20.0352 -11.8487   0.5755   0.6810   0.6810
     5.7694  11.2768  11.7022  11.7022  13.3332  13.7433  15.7008  17.6202
    17.6202  17.7873  24.2975  24.8940

          k =-0.0849 0.0000 0.0000 ( 10689 PWs)   bands (ev):

   -47.9552 -20.0358 -20.0351 -20.0351 -11.8536   0.6101   0.6891   0.6891
     5.7122  11.3529  11.6730  11.6730  13.4190  13.7260  15.5800  17.5865
    17.5865  17.7136  24.2479  25.0837

          k =-0.0707 0.0000 0.0000 ( 10705 PWs)   bands (ev):

   -47.9552 -20.0355 -20.0350 -20.0350 -11.8579   0.6404   0.6961   0.6961
     5.6628  11.4209  11.6482  11.6482  13.4946  13.7114  15.4740  17.5578
    17.5578  17.6489  24.2007  25.2634

          k =-0.0566 0.0000 0.0000 ( 10705 PWs)   bands (ev):

   -47.9552 -20.0353 -20.0350 -20.0350 -11.8613   0.6657   0.7019   0.7019
     5.6218  11.4796  11.6278  11.6278  13.5586  13.6994  15.3844  17.5344
    17.5344  17.5943  24.1591  25.4289

          k =-0.0424 0.0000 0.0000 ( 10713 PWs)   bands (ev):

   -47.9553 -20.0351 -20.0349 -20.0349 -11.8641   0.6858   0.7064   0.7064
     5.5894  11.5272  11.6119  11.6119  13.6100  13.6901  15.3126  17.5162
    17.5162  17.5506  24.1250  25.5739

          k =-0.0283 0.0000 0.0000 ( 10745 PWs)   bands (ev):

   -47.9553 -20.0350 -20.0349 -20.0349 -11.8660   0.7004   0.7096   0.7096
     5.5660  11.5624  11.6005  11.6005  13.6475  13.6834  15.2602  17.5031
    17.5031  17.5187  24.0998  25.6900

          k =-0.0141 0.0000 0.0000 ( 10777 PWs)   bands (ev):

   -47.9553 -20.0349 -20.0349 -20.0349 -11.8672   0.7093   0.7116   0.7116
     5.5519  11.5840  11.5936  11.5936  13.6704  13.6794  15.2282  17.4953
    17.4953  17.4992  24.0844  25.7663

          k = 0.0000 0.0000 0.0000 ( 10777 PWs)   bands (ev):

   -47.9553 -20.0349 -20.0349 -20.0349 -11.8676   0.7122   0.7122   0.7122
     5.5472  11.5913  11.5913  11.5913  13.6780  13.6780  15.2175  17.4927
    17.4927  17.4927  24.0792  25.7932

     Writing all to output data dir ./out/aiida.save/ :
     XML data file, pseudopotentials, collected wavefunctions

     init_run     :      2.46s CPU      2.39s WALL (       1 calls)
     electrons    :   3075.87s CPU    876.76s WALL (       1 calls)

     Called by init_run:
     wfcinit      :      0.00s CPU      0.00s WALL (       1 calls)
     wfcinit:atom :      1.20s CPU      0.36s WALL (     301 calls)
     wfcinit:wfcr :     68.56s CPU     20.32s WALL (     301 calls)
     potinit      :      0.60s CPU      0.64s WALL (       1 calls)
     hinit0       :      0.96s CPU      0.97s WALL (       1 calls)

     Called by electrons:
     c_bands      :   3075.85s CPU    876.76s WALL (       1 calls)
     v_of_rho     :      0.11s CPU      0.13s WALL (       1 calls)
     v_h          :      0.01s CPU      0.01s WALL (       1 calls)
     v_xc         :      0.10s CPU      0.12s WALL (       1 calls)
     newd         :      0.55s CPU      0.42s WALL (       1 calls)
     PAW_pot      :      0.17s CPU      0.18s WALL (       1 calls)

     Called by c_bands:
     init_us_2    :      2.70s CPU      0.82s WALL (     301 calls)
     cegterg      :   2992.21s CPU    851.81s WALL (    1082 calls)

     Called by sum_band:

     Called by *egterg:
     cdiaghg      :     32.24s CPU      7.77s WALL (   19089 calls)
     cegterg:over :    122.59s CPU     22.43s WALL (   18788 calls)
     cegterg:upda :     71.45s CPU     14.60s WALL (   18788 calls)
     cegterg:last :    176.52s CPU     34.41s WALL (   12161 calls)
     h_psi        :   2559.69s CPU    769.45s WALL (   20171 calls)
     s_psi        :     32.69s CPU      7.27s WALL (   20171 calls)
     g_psi        :     24.81s CPU      6.73s WALL (   18788 calls)

     Called by h_psi:
     h_psi:calbec :     46.69s CPU     10.99s WALL (   20171 calls)
     vloc_psi     :   2456.43s CPU    746.26s WALL (   20171 calls)
     add_vuspsi   :     44.55s CPU      8.87s WALL (   20171 calls)

     General routines
     calbec       :     46.48s CPU     10.94s WALL (   20171 calls)
     fft          :      0.38s CPU      0.38s WALL (      13 calls)
     ffts         :      0.31s CPU      0.31s WALL (       1 calls)
     fftw         :   2037.38s CPU    623.36s WALL (  477070 calls)
     interpolate  :      0.32s CPU      0.32s WALL (       1 calls)
     davcio       :      1.45s CPU      0.66s WALL (     602 calls)

     Parallel routines

     PAW routines
     PAW_pot      :      0.17s CPU      0.18s WALL (       1 calls)

     PWSCF        :  51m18.94s CPU  14m40.13s WALL


   This run was terminated on:  23:39: 5   8Apr2026            

=------------------------------------------------------------------------------=
   JOB DONE.
=------------------------------------------------------------------------------=
